28
Coordinates from ORCA-job Mn_byp_Br_CO3_zero_singlet_triplet E -4560.416292420005
  C      -3.209366      0.290555     -0.080697
  C      -1.164753      1.342405     -0.628100
  C      -1.614775      2.568206     -0.219046
  C      -2.935761      2.663899      0.290458
  C      -3.711184      1.541302      0.351484
  C      -3.931534     -0.923070     -0.068343
  C      -3.877783     -3.211554     -0.607851
  C      -5.170115     -3.406428     -0.183881
  C      -5.875534     -2.298283      0.337488
  C      -5.262083     -1.077905      0.392106
  H      -0.166447      1.237829     -1.028359
  H      -0.972094      3.432371     -0.296360
  H      -3.326533      3.616590      0.621997
  H      -4.721583      1.600444      0.729269
  H      -3.308565     -4.032330     -1.022675
  H      -5.623825     -4.383220     -0.260869
  H      -6.893133     -2.412710      0.687017
  H      -5.790020     -0.221137      0.784697
  N      -3.254174     -2.024562     -0.557199
  N      -1.907580      0.216533     -0.573192
  Mn     -1.349252     -1.621314     -1.155093
  C       0.305890     -1.079281     -1.814708
  C      -0.820524     -3.378073     -1.650210
  C      -0.904517     -1.920775      0.669839
  Br     -2.177151     -1.519765     -3.465423
  O      -0.710802     -2.074586      1.773250
  O       1.310117     -0.762824     -2.242849
  O      -0.464482     -4.407841     -1.963869
28
Coordinates from ORCA-job Mn_byp_Br_CO3_zero_singlet_triplet E -4560.407660455594
  C      -3.219034      0.285538     -0.076591
  C      -1.151056      1.344819     -0.624831
  C      -1.597824      2.566614     -0.216353
  C      -2.932636      2.662871      0.293538
  C      -3.713141      1.549005      0.353094
  C      -3.934499     -0.913793     -0.065781
  C      -3.881232     -3.217919     -0.614619
  C      -5.168145     -3.415155     -0.185571
  C      -5.876118     -2.299911      0.345546
  C      -5.269564     -1.081234      0.402929
  H      -0.151401      1.242097     -1.023823
  H      -0.952693      3.428779     -0.291362
  H      -3.321560      3.616432      0.625244
  H      -4.723653      1.615459      0.728734
  H      -3.315414     -4.040060     -1.033531
  H      -5.620564     -4.392180     -0.264324
  H      -6.891451     -2.417376      0.701061
  H      -5.798698     -0.229644      0.804673
  N      -3.258293     -2.026978     -0.569222
  N      -1.900468      0.217072     -0.574763
  Mn     -1.358065     -1.616734     -1.170801
  C       0.300537     -1.074186     -1.830186
  C      -0.803588     -3.376714     -1.648034
  C      -0.936121     -1.909096      0.668674
  Br     -2.165775     -1.546832     -3.478417
  O      -0.753989     -2.055313      1.768301
  O       1.302975     -0.759296     -2.254324
  O      -0.436094     -4.401788     -1.950380
28
Coordinates from ORCA-job Mn_byp_Br_CO3_zero_singlet_triplet E -4560.373252324966
  C      -3.241545      0.267444     -0.076601
  C      -1.116876      1.350284     -0.615512
  C      -1.549022      2.559623     -0.197098
  C      -2.916032      2.652323      0.313832
  C      -3.708037      1.564507      0.361209
  C      -3.939958     -0.889413     -0.073346
  C      -3.889724     -3.235789     -0.620730
  C      -5.162903     -3.439150     -0.179211
  C      -5.877597     -2.301109      0.359394
  C      -5.290900     -1.088246      0.410807
  H      -0.114965      1.252087     -1.012851
  H      -0.897922      3.417304     -0.256666
  H      -3.297812      3.606214      0.654225
  H      -4.718479      1.647822      0.734539
  H      -3.330538     -4.063065     -1.042969
  H      -5.610881     -4.418122     -0.248687
  H      -6.888239     -2.423860      0.727357
  H      -5.824991     -0.244487      0.823358
  N      -3.268075     -2.038761     -0.595989
  N      -1.879660      0.218728     -0.584693
  Mn     -1.389486     -1.602259     -1.222576
  C       0.277890     -1.056847     -1.894238
  C      -0.741795     -3.370107     -1.642059
  C      -1.042810     -1.866829      0.669415
  Br     -2.149370     -1.633388     -3.507222
  O      -0.897780     -1.985334      1.763111
  O       1.274159     -0.745588     -2.314725
  O      -0.334215     -4.379506     -1.913190
28
Coordinates from ORCA-job Mn_byp_Br_CO3_zero_singlet_triplet E -4560.332482219448
  C      -3.254098      0.251626     -0.079044
  C      -1.080413      1.353902     -0.601200
  C      -1.497223      2.556040     -0.172463
  C      -2.891790      2.643999      0.330649
  C      -3.696168      1.579491      0.362793
  C      -3.943548     -0.874795     -0.081797
  C      -3.897516     -3.257453     -0.621421
  C      -5.159666     -3.467013     -0.165944
  C      -5.879145     -2.308039      0.372640
  C      -5.309209     -1.098857      0.414274
  H      -0.076201      1.256101     -0.996122
  H      -0.841081      3.409745     -0.213032
  H      -3.267507      3.598638      0.677824
  H      -4.708362      1.677663      0.728848
  H      -3.342652     -4.088874     -1.045782
  H      -5.604153     -4.447632     -0.222485
  H      -6.885857     -2.434836      0.751150
  H      -5.846745     -0.259234      0.831820
  N      -3.279826     -2.057179     -0.619654
  N      -1.853904      0.223139     -0.589271
  Mn     -1.426784     -1.589620     -1.278026
  C       0.250612     -1.041165     -1.966334
  C      -0.669692     -3.355578     -1.635586
  C      -1.168933     -1.823758      0.670284
  Br     -2.155464     -1.700073     -3.528386
  O      -1.066382     -1.912841      1.763538
  O       1.241904     -0.732558     -2.386800
  O      -0.217759     -4.346363     -1.881593
28
Coordinates from ORCA-job Mn_byp_Br_CO3_zero_singlet_triplet E -4560.292789114235
  C      -3.255336      0.239711     -0.088510
  C      -1.042534      1.356145     -0.579814
  C      -1.444821      2.556927     -0.140024
  C      -2.861444      2.638221      0.342770
  C      -3.679389      1.592546      0.354345
  C      -3.945782     -0.871929     -0.094997
  C      -3.904778     -3.284684     -0.614358
  C      -5.159382     -3.497190     -0.143065
  C      -5.881002     -2.318912      0.386147
  C      -5.323133     -1.110965      0.411756
  H      -0.035243      1.254609     -0.969008
  H      -0.784705      3.407086     -0.155973
  H      -3.233782      3.593297      0.694894
  H      -4.695781      1.702395      0.706641
  H      -3.352860     -4.120340     -1.037977
  H      -5.602289     -4.478717     -0.181682
  H      -6.884349     -2.446902      0.774144
  H      -5.861218     -0.270575      0.828200
  N      -3.293413     -2.084625     -0.639490
  N      -1.823303      0.232226     -0.588632
  Mn     -1.469729     -1.583360     -1.334515
  C       0.219242     -1.031169     -2.044157
  C      -0.586352     -3.331148     -1.631066
  C      -1.309158     -1.783067      0.672031
  Br     -2.184910     -1.741489     -3.547182
  O      -1.252101     -1.840407      1.770110
  O       1.206836     -0.724161     -2.467753
  O      -0.086846     -4.299045     -1.863951
28
Coordinates from ORCA-job Mn_byp_Br_CO3_zero_singlet_triplet E -4560.270906264738
  C      -3.229376      0.235622     -0.109305
  C      -1.015232      1.359235     -0.555220
  C      -1.409275      2.569944     -0.101913
  C      -2.826892      2.637314      0.349448
  C      -3.654076      1.594971      0.336138
  C      -3.940348     -0.893249     -0.116710
  C      -3.915461     -3.313227     -0.602211
  C      -5.170818     -3.520444     -0.112073
  C      -5.881259     -2.331766      0.398670
  C      -5.319487     -1.122076      0.401541
  H      -0.005320      1.250134     -0.937497
  H      -0.751548      3.420934     -0.090715
  H      -3.202301      3.590289      0.706541
  H      -4.676894      1.703141      0.672163
  H      -3.366456     -4.152629     -1.023420
  H      -5.619906     -4.499391     -0.128639
  H      -6.881721     -2.453617      0.796480
  H      -5.847362     -0.271497      0.811664
  N      -3.309452     -2.123421     -0.654607
  N      -1.790410      0.251301     -0.586983
  Mn     -1.515121     -1.592347     -1.384278
  C       0.189194     -1.033670     -2.118931
  C      -0.492389     -3.301582     -1.628595
  C      -1.451123     -1.752785      0.684866
  Br     -2.236625     -1.749299     -3.568050
  O      -1.441942     -1.775801      1.802466
  O       1.178508     -0.725593     -2.549996
  O       0.055525     -4.246014     -1.871955
28
Coordinates from ORCA-job Mn_byp_Br_CO3_zero_singlet_triplet E -4560.304439826078
  C      -3.170838      0.233552     -0.119445
  C      -1.018175      1.353459     -0.513457
  C      -1.436159      2.580235     -0.063370
  C      -2.828158      2.634227      0.334628
  C      -3.645072      1.566078      0.295001
  C      -3.910047     -0.933727     -0.126287
  C      -3.927717     -3.319241     -0.584509
  C      -5.193056     -3.502901     -0.081486
  C      -5.871656     -2.318851      0.398583
  C      -5.277883     -1.107711      0.379010
  H      -0.001918      1.242386     -0.877027
  H      -0.790597      3.439956     -0.030499
  H      -3.226421      3.584318      0.674409
  H      -4.682676      1.652423      0.589423
  H      -3.385963     -4.163330     -1.002172
  H      -5.662364     -4.472581     -0.081892
  H      -6.875206     -2.417469      0.794402
  H      -5.784511     -0.234452      0.767475
  N      -3.312191     -2.147753     -0.646643
  N      -1.764741      0.255361     -0.551430
  Mn     -1.531252     -1.613457     -1.395381
  C       0.167590     -1.030089     -2.166801
  C      -0.446357     -3.295221     -1.627960
  C      -1.464121     -1.778229      0.708608
  Br     -2.297981     -1.711877     -3.576247
  O      -1.459901     -1.798148      1.847811
  O       1.154978     -0.708621     -2.618378
  O       0.114828     -4.233861     -1.907484
28
Coordinates from ORCA-job Mn_byp_Br_CO3_zero_singlet_triplet E -4560.317078992593
  C      -3.113509      0.240762     -0.125638
  C      -1.046305      1.356025     -0.489092
  C      -1.498673      2.594087     -0.040494
  C      -2.851176      2.631867      0.324708
  C      -3.644572      1.523822      0.267928
  C      -3.877990     -0.971964     -0.134159
  C      -3.932778     -3.304358     -0.576520
  C      -5.212043     -3.463256     -0.069971
  C      -5.855987     -2.298425      0.389019
  C      -5.220302     -1.086884      0.357455
  H      -0.026379      1.251750     -0.842036
  H      -0.869123      3.466152      0.001844
  H      -3.275553      3.573925      0.653649
  H      -4.691304      1.575401      0.536414
  H      -3.397564     -4.150772     -0.992457
  H      -5.701788     -4.423403     -0.065500
  H      -6.862675     -2.373033      0.780855
  H      -5.702012     -0.193857      0.731612
  N      -3.304671     -2.149321     -0.636343
  N      -1.760608      0.261705     -0.526331
  Mn     -1.518592     -1.635947     -1.384672
  C       0.168523     -1.038455     -2.178640
  C      -0.461527     -3.320489     -1.620162
  C      -1.397388     -1.814177      0.726197
  Br     -2.330445     -1.667379     -3.581004
  O      -1.385476     -1.844435      1.884885
  O       1.158110     -0.707472     -2.649997
  O       0.084240     -4.277390     -1.922666
28
Coordinates from ORCA-job Mn_byp_Br_CO3_zero_singlet_triplet E -4560.350330905111
  C      -3.111046      0.242288     -0.100212
  C      -1.073733      1.360216     -0.482381
  C      -1.556644      2.583032     -0.045238
  C      -2.902689      2.620180      0.325969
  C      -3.672111      1.487625      0.275033
  C      -3.863503     -0.963507     -0.118489
  C      -3.926568     -3.270221     -0.593807
  C      -5.206872     -3.418184     -0.096865
  C      -5.843163     -2.266773      0.371290
  C      -5.188872     -1.058862      0.354481
  H      -0.050731      1.275521     -0.831240
  H      -0.930835      3.459939     -0.015374
  H      -3.346441      3.556653      0.641776
  H      -4.720913      1.524276      0.531062
  H      -3.396902     -4.116747     -1.013984
  H      -5.700552     -4.377121     -0.109229
  H      -6.853585     -2.330588      0.754513
  H      -5.668285     -0.167098      0.730232
  N      -3.282989     -2.107534     -0.627814
  N      -1.780405      0.239557     -0.492645
  Mn     -1.468109     -1.641102     -1.359387
  C       0.184645     -1.037434     -2.161366
  C      -0.550985     -3.364644     -1.578732
  C      -1.230565     -1.842728      0.703644
  Br     -2.307274     -1.677265     -3.581885
  O      -1.181359     -1.895719      1.837258
  O       1.162747     -0.702020     -2.646922
  O      -0.059825     -4.357265     -1.850805
28
Coordinates from ORCA-job Mn_byp_Br_CO3_zero_singlet_triplet E -4560.363163029137
  C      -3.149261      0.249349     -0.064045
  C      -1.071186      1.349123     -0.464479
  C      -1.557591      2.560190     -0.063249
  C      -2.932884      2.632559      0.302952
  C      -3.705275      1.511396      0.271378
  C      -3.879552     -0.932973     -0.083021
  C      -3.902203     -3.249929     -0.594754
  C      -5.177525     -3.413621     -0.118988
  C      -5.850559     -2.265714      0.359768
  C      -5.218722     -1.055325      0.366811
  H      -0.044754      1.261873     -0.799109
  H      -0.915088      3.426783     -0.049486
  H      -3.373432      3.579770      0.586541
  H      -4.755945      1.575653      0.505642
  H      -3.361726     -4.088090     -1.017031
  H      -5.651465     -4.382696     -0.152222
  H      -6.866634     -2.344103      0.724885
  H      -5.728939     -0.182583      0.741991
  N      -3.262407     -2.067893     -0.602413
  N      -1.796575      0.209319     -0.449090
  Mn     -1.430764     -1.630690     -1.326610
  C       0.185427     -1.020762     -2.133129
  C      -0.642904     -3.377665     -1.569808
  C      -1.087610     -1.885137      0.674396
  Br     -2.284963     -1.664627     -3.559976
  O      -1.008107     -1.971932      1.777518
  O       1.144195     -0.681594     -2.627907
  O      -0.201116     -4.386201     -1.817684
28
Coordinates from ORCA-job Mn_byp_Br_CO3_zero_singlet_triplet E -4560.357191040342
  C      -3.173157      0.248919     -0.035900
  C      -1.052860      1.328603     -0.439131
  C      -1.535545      2.544795     -0.090109
  C      -2.932994      2.647868      0.261200
  C      -3.713064      1.541976      0.259887
  C      -3.897357     -0.919622     -0.050754
  C      -3.897361     -3.245931     -0.594951
  C      -5.169103     -3.426512     -0.130394
  C      -5.864169     -2.279889      0.365290
  C      -5.251142     -1.069305      0.393296
  H      -0.021987      1.226968     -0.754054
  H      -0.882423      3.403927     -0.097425
  H      -3.367375      3.610769      0.495978
  H      -4.768159      1.632863      0.469027
  H      -3.349505     -4.076367     -1.023914
  H      -5.630415     -4.401088     -0.177617
  H      -6.882063     -2.373150      0.721666
  H      -5.778595     -0.209515      0.777232
  N      -3.261483     -2.057537     -0.580864
  N      -1.790730      0.182371     -0.396719
  Mn     -1.426896     -1.616958     -1.305546
  C       0.174534     -0.990716     -2.109084
  C      -0.660980     -3.361952     -1.594422
  C      -1.046642     -1.918097      0.669810
  Br     -2.289078     -1.633249     -3.528837
  O      -0.957059     -2.028654      1.773390
  O       1.123862     -0.640711     -2.606364
  O      -0.225819     -4.365329     -1.851810
28
Coordinates from ORCA-job Mn_byp_Br_CO3_zero_singlet_triplet E -4560.343905398644
  C      -3.181429      0.240740     -0.003480
  C      -1.029376      1.301668     -0.410088
  C      -1.509179      2.529799     -0.124900
  C      -2.921560      2.656887      0.205781
  C      -3.706556      1.563064      0.241326
  C      -3.910446     -0.919656     -0.015109
  C      -3.905446     -3.246044     -0.595649
  C      -5.178036     -3.439746     -0.141162
  C      -5.880434     -2.295241      0.375558
  C      -5.275658     -1.087168      0.426950
  H       0.007722      1.182476     -0.695832
  H      -0.850371      3.384276     -0.153292
  H      -3.350887      3.634081      0.383726
  H      -4.766947      1.671875      0.422388
  H      -3.354225     -4.068833     -1.036223
  H      -5.635721     -4.414877     -0.203176
  H      -6.898902     -2.399401      0.727442
  H      -5.806674     -0.235153      0.827259
  N      -3.269998     -2.060766     -0.557353
  N      -1.770196      0.151323     -0.326535
  Mn     -1.439032     -1.600548     -1.289761
  C       0.153609     -0.947931     -2.089168
  C      -0.638231     -3.330694     -1.628896
  C      -1.046084     -1.944071      0.678935
  Br     -2.315363     -1.601021     -3.489469
  O      -0.956064     -2.070493      1.790574
  O       1.095625     -0.580345     -2.589175
  O      -0.187706     -4.319725     -1.911789
28
Coordinates from ORCA-job Mn_byp_Br_CO3_zero_singlet_triplet E -4560.331671419447
  C      -3.174865      0.229451      0.023542
  C      -1.010386      1.272977     -0.379223
  C      -1.491210      2.513106     -0.154881
  C      -2.906677      2.655163      0.155580
  C      -3.692369      1.564967      0.223954
  C      -3.917087     -0.929329      0.009501
  C      -3.918054     -3.245653     -0.594079
  C      -5.196253     -3.444578     -0.149751
  C      -5.893651     -2.304425      0.380241
  C      -5.285337     -1.098447      0.449948
  H       0.034147      1.139834     -0.627417
  H      -0.830900      3.365771     -0.198317
  H      -3.333057      3.640956      0.286963
  H      -4.756764      1.677982      0.384132
  H      -3.364772     -4.063075     -1.042604
  H      -5.657394     -4.416930     -0.222645
  H      -6.912292     -2.412790      0.730595
  H      -5.808627     -0.248237      0.865996
  N      -3.282439     -2.067619     -0.537745
  N      -1.747300      0.120566     -0.256511
  Mn     -1.457615     -1.585044     -1.282334
  C       0.125791     -0.904614     -2.082355
  C      -0.600787     -3.294392     -1.652459
  C      -1.056731     -1.954605      0.688321
  Br     -2.353243     -1.585974     -3.457929
  O      -0.971259     -2.083708      1.808164
  O       1.060044     -0.518487     -2.589205
  O      -0.128480     -4.268388     -1.960600
28
Coordinates from ORCA-job Mn_byp_Br_CO3_zero_singlet_triplet E -4560.325119648662
  C      -3.160236      0.218693      0.040067
  C      -0.998101      1.244863     -0.341951
  C      -1.485278      2.493134     -0.170544
  C      -2.895435      2.644525      0.116912
  C      -3.678653      1.549062      0.207985
  C      -3.919071     -0.943133      0.017855
  C      -3.929252     -3.243335     -0.588638
  C      -5.215988     -3.438482     -0.154276
  C      -5.901156     -2.304454      0.376694
  C      -5.281016     -1.098983      0.456117
  H       0.055488      1.103234     -0.540315
  H      -0.825220      3.345802     -0.219621
  H      -3.321067      3.633973      0.217534
  H      -4.745573      1.655053      0.357414
  H      -3.373904     -4.059226     -1.036837
  H      -5.684546     -4.406736     -0.231814
  H      -6.920113     -2.410311      0.727061
  H      -5.790550     -0.245468      0.882006
  N      -3.294154     -2.071392     -0.523754
  N      -1.731779      0.091529     -0.198418
  Mn     -1.474582     -1.572305     -1.283942
  C       0.093471     -0.866176     -2.091552
  C      -0.568218     -3.262205     -1.659418
  C      -1.055079     -1.949735      0.686272
  Br     -2.392165     -1.595953     -3.443462
  O      -0.974196     -2.068151      1.811515
  O       1.017107     -0.463002     -2.611212
  O      -0.078299     -4.226345     -1.982797
28
Coordinates from ORCA-job Mn_byp_Br_CO3_zero_singlet_triplet E -4560.331156374573
  C      -3.149589      0.217994      0.036666
  C      -0.999649      1.237465     -0.320574
  C      -1.495173      2.486017     -0.157172
  C      -2.897523      2.636923      0.115833
  C      -3.677085      1.529125      0.203756
  C      -3.916422     -0.951649      0.006499
  C      -3.932313     -3.239925     -0.587519
  C      -5.224091     -3.425278     -0.154672
  C      -5.898078     -2.296568      0.369301
  C      -5.266067     -1.089876      0.445886
  H       0.059531      1.094212     -0.485524
  H      -0.836112      3.340315     -0.196297
  H      -3.325590      3.624406      0.220930
  H      -4.743691      1.622751      0.359418
  H      -3.376740     -4.058511     -1.028882
  H      -5.698793     -4.391042     -0.229009
  H      -6.916809     -2.395877      0.722265
  H      -5.765271     -0.231280      0.871870
  N      -3.297053     -2.068530     -0.525977
  N      -1.737723      0.085292     -0.197782
  Mn     -1.475319     -1.572963     -1.295776
  C       0.079296     -0.860711     -2.112912
  C      -0.562815     -3.261836     -1.643875
  C      -1.036724     -1.930385      0.669238
  Br     -2.402949     -1.634786     -3.459025
  O      -0.958830     -2.027064      1.794606
  O       0.995878     -0.453243     -2.644203
  O      -0.071858     -4.230499     -1.958188
28
Coordinates from ORCA-job Mn_byp_Br_CO3_zero_singlet_triplet E -4560.344679109639
  C      -3.146226      0.226103      0.025088
  C      -1.011029      1.245303     -0.311146
  C      -1.515599      2.488435     -0.127971
  C      -2.913238      2.635669      0.134312
  C      -3.688072      1.514542      0.203088
  C      -3.911232     -0.951524     -0.008860
  C      -3.926966     -3.234156     -0.591697
  C      -5.218898     -3.409369     -0.154034
  C      -5.888143     -2.284796      0.364518
  C      -5.248965     -1.076361      0.433694
  H       0.050318      1.104731     -0.466425
  H      -0.857126      3.344316     -0.153004
  H      -3.346849      3.618002      0.258109
  H      -4.753455      1.596770      0.367047
  H      -3.372839     -4.056255     -1.026301
  H      -5.695865     -4.374969     -0.223710
  H      -6.906166     -2.378090      0.720957
  H      -5.744836     -0.214942      0.855597
  N      -3.290074     -2.058697     -0.535874
  N      -1.756385      0.093772     -0.228070
  Mn     -1.458859     -1.581824     -1.306492
  C       0.085106     -0.877519     -2.127499
  C      -0.588552     -3.286911     -1.622661
  C      -0.998705     -1.915900      0.643251
  Br     -2.387575     -1.674448     -3.487401
  O      -0.921448     -1.992667      1.763896
  O       0.998853     -0.474159     -2.665025
  O      -0.114738     -4.270580     -1.914505
28
Coordinates from ORCA-job Mn_byp_Br_CO3_zero_singlet_triplet E -4560.349577255246
  C      -3.154261      0.232803      0.022450
  C      -1.013446      1.249891     -0.306319
  C      -1.518248      2.489888     -0.117245
  C      -2.921373      2.641848      0.135421
  C      -3.698228      1.522699      0.195292
  C      -3.913390     -0.944592     -0.007371
  C      -3.919044     -3.232176     -0.591735
  C      -5.208183     -3.409745     -0.153543
  C      -5.886255     -2.285415      0.366410
  C      -5.253436     -1.075583      0.434718
  H       0.047143      1.110711     -0.467912
  H      -0.856633      3.343781     -0.138981
  H      -3.355368      3.624054      0.257607
  H      -4.764309      1.609818      0.351014
  H      -3.363784     -4.053383     -1.026279
  H      -5.680000     -4.378074     -0.224149
  H      -6.904222     -2.381826      0.721861
  H      -5.756933     -0.217614      0.854487
  N      -3.282711     -2.052660     -0.534143
  N      -1.763280      0.096622     -0.232809
  Mn     -1.446541     -1.583005     -1.301055
  C       0.092823     -0.884334     -2.120394
  C      -0.617283     -3.300830     -1.626835
  C      -0.970470     -1.922641      0.634709
  Br     -2.377682     -1.669497     -3.488585
  O      -0.889024     -2.001339      1.753214
  O       1.006122     -0.483234     -2.657545
  O      -0.159545     -4.291690     -1.913401
28
Coordinates from ORCA-job Mn_byp_Br_CO3_zero_singlet_triplet E -4560.349184844639
  C      -3.164501      0.236476      0.026368
  C      -1.009048      1.248223     -0.299149
  C      -1.509787      2.488674     -0.118246
  C      -2.920960      2.649350      0.123864
  C      -3.703076      1.538386      0.184521
  C      -3.919785     -0.939016      0.001937
  C      -3.912528     -3.232004     -0.588850
  C      -5.199782     -3.417925     -0.154886
  C      -5.889683     -2.294060      0.369515
  C      -5.266857     -1.083267      0.441984
  H       0.050464      1.106554     -0.464573
  H      -0.843630      3.339130     -0.140893
  H      -3.351997      3.634646      0.230863
  H      -4.770944      1.636316      0.324064
  H      -3.353860     -4.049816     -1.025871
  H      -5.664625     -4.389298     -0.229822
  H      -6.907792     -2.397797      0.722137
  H      -5.779652     -0.230510      0.862450
  N      -3.278796     -2.050438     -0.525365
  N      -1.762543      0.093772     -0.219778
  Mn     -1.440894     -1.577839     -1.289847
  C       0.095085     -0.880257     -2.105919
  C      -0.640385     -3.304414     -1.644677
  C      -0.951143     -1.930624      0.635531
  Br     -2.379226     -1.650087     -3.474157
  O      -0.865560     -2.014271      1.756484
  O       1.007997     -0.477708     -2.642107
  O      -0.194053     -4.297719     -1.936695
28
Coordinates from ORCA-job Mn_byp_Br_CO3_zero_singlet_triplet E -4560.348762649134
  C      -3.165067      0.236085      0.027322
  C      -1.006961      1.244843     -0.293332
  C      -1.506203      2.487278     -0.117860
  C      -2.917781      2.649549      0.118770
  C      -3.701555      1.540030      0.180379
  C      -3.921235     -0.940573      0.003456
  C      -3.911316     -3.232454     -0.585728
  C      -5.199880     -3.420448     -0.154735
  C      -5.890821     -2.297443      0.368715
  C      -5.268761     -1.086175      0.442385
  H       0.052836      1.100246     -0.454065
  H      -0.839329      3.337123     -0.139113
  H      -3.347684      3.636038      0.219533
  H      -4.770239      1.639162      0.314588
  H      -3.350924     -4.049475     -1.022167
  H      -5.664070     -4.391975     -0.230613
  H      -6.909201     -2.402656      0.720100
  H      -5.781745     -0.233241      0.862767
  N      -3.279366     -2.051508     -0.521742
  N      -1.761525      0.091942     -0.213513
  Mn     -1.442131     -1.574295     -1.288286
  C       0.092277     -0.875817     -2.103699
  C      -0.644462     -3.303533     -1.652829
  C      -0.948107     -1.925999      0.636493
  Br     -2.386274     -1.648414     -3.468139
  O      -0.862853     -2.005125      1.759639
  O       1.004763     -0.471354     -2.640977
  O      -0.199952     -4.297334     -1.948469
28
Coordinates from ORCA-job Mn_byp_Br_CO3_zero_singlet_triplet E -4560.350273875032
  C      -3.166932      0.236434      0.025032
  C      -1.003631      1.236138     -0.271434
  C      -1.499469      2.483603     -0.106536
  C      -2.911292      2.649046      0.107956
  C      -3.700018      1.541662      0.164756
  C      -3.923832     -0.945250      0.002864
  C      -3.903143     -3.233880     -0.572494
  C      -5.196207     -3.426219     -0.150561
  C      -5.890878     -2.305538      0.363419
  C      -5.270701     -1.091557      0.436530
  H       0.057367      1.082880     -0.415144
  H      -0.830725      3.331932     -0.117167
  H      -3.338592      3.638092      0.194663
  H      -4.771001      1.641814      0.282777
  H      -3.336743     -4.050230     -1.002556
  H      -5.658084     -4.398690     -0.226102
  H      -6.910553     -2.413806      0.710040
  H      -5.784400     -0.236229      0.852033
  N      -3.277857     -2.053172     -0.511613
  N      -1.763183      0.089253     -0.201646
  Mn     -1.441774     -1.563359     -1.285975
  C       0.086477     -0.866760     -2.098483
  C      -0.671433     -3.308512     -1.679788
  C      -0.927835     -1.905061      0.633357
  Br     -2.406656     -1.649002     -3.453955
  O      -0.843417     -1.962938      1.761203
  O       0.997827     -0.458093     -2.639340
  O      -0.240881     -4.308081     -1.982952
28
Coordinates from ORCA-job Mn_byp_Br_CO3_zero_singlet_triplet E -4560.352642202147
  C      -3.169604      0.237903      0.020893
  C      -1.003481      1.233779     -0.257544
  C      -1.498238      2.482678     -0.094068
  C      -2.911031      2.649005      0.104831
  C      -3.702641      1.542519      0.153648
  C      -3.924055     -0.946648      0.000830
  C      -3.894121     -3.235627     -0.561757
  C      -5.189571     -3.429516     -0.145287
  C      -5.888922     -2.308967      0.358504
  C      -5.271226     -1.092694      0.428661
  H       0.058168      1.076848     -0.392826
  H      -0.828665      3.330319     -0.095197
  H      -3.337537      3.638877      0.186642
  H      -4.774739      1.642964      0.261547
  H      -3.323975     -4.052916     -0.985026
  H      -5.649068     -4.403248     -0.218754
  H      -6.910148     -2.418380      0.700179
  H      -5.787505     -0.235358      0.836871
  N      -3.273010     -2.053453     -0.505006
  N      -1.766675      0.090317     -0.199259
  Mn     -1.437387     -1.556479     -1.284655
  C       0.087730     -0.865804     -2.093314
  C      -0.701765     -3.317935     -1.699453
  C      -0.905689     -1.891050      0.628326
  Br     -2.416391     -1.648411     -3.446724
  O      -0.819829     -1.933978      1.756979
  O       0.999451     -0.456575     -2.634549
  O      -0.287642     -4.323692     -2.005611
28
Coordinates from ORCA-job Mn_byp_Br_CO3_zero_singlet_triplet E -4560.355032691112
  C      -3.172419      0.239214      0.016522
  C      -1.005131      1.236215     -0.249010
  C      -1.501331      2.483689     -0.082308
  C      -2.915987      2.648680      0.105960
  C      -3.708415      1.542188      0.145858
  C      -3.921957     -0.946219     -0.001175
  C      -3.884321     -3.238597     -0.551289
  C      -5.181128     -3.431214     -0.138719
  C      -5.886087     -2.308530      0.352849
  C      -5.271075     -1.090570      0.418595
  H       0.057111      1.080101     -0.381840
  H      -0.832274      3.331710     -0.076077
  H      -3.343628      3.638049      0.188645
  H      -4.780862      1.642282      0.247856
  H      -3.312319     -4.058688     -0.966404
  H      -5.638516     -4.406287     -0.208675
  H      -6.909641     -2.417062      0.687914
  H      -5.791504     -0.231190      0.816544
  N      -3.264963     -2.053991     -0.499156
  N      -1.770070      0.093613     -0.200998
  Mn     -1.430436     -1.550917     -1.283726
  C       0.095177     -0.869981     -2.086080
  C      -0.736830     -3.330625     -1.716961
  C      -0.879428     -1.882567      0.623027
  Br     -2.419797     -1.643978     -3.443104
  O      -0.788504     -1.915538      1.749459
  O       1.009305     -0.462824     -2.623630
  O      -0.342531     -4.342485     -2.025193
28
Coordinates from ORCA-job Mn_byp_Br_CO3_zero_singlet_triplet E -4560.356784481721
  C      -3.172331      0.238388      0.017428
  C      -1.005839      1.239344     -0.250835
  C      -1.504504      2.484637     -0.083752
  C      -2.920220      2.648054      0.106909
  C      -3.710887      1.540758      0.147356
  C      -3.920307     -0.945415     -0.000286
  C      -3.883790     -3.240032     -0.550144
  C      -5.180281     -3.430147     -0.137536
  C      -5.886200     -2.305564      0.351595
  C      -5.271172     -1.088163      0.416660
  H       0.056701      1.086868     -0.385901
  H      -0.836647      3.333701     -0.079952
  H      -3.349568      3.636458      0.192022
  H      -4.782923      1.640390      0.251363
  H      -3.313091     -4.061986     -0.963251
  H      -5.637907     -4.405286     -0.206312
  H      -6.910692     -2.412263      0.684489
  H      -5.792938     -0.228597      0.811892
  N      -3.262328     -2.054913     -0.498017
  N      -1.769100      0.094226     -0.200586
  Mn     -1.429233     -1.549801     -1.284060
  C       0.099901     -0.872112     -2.083183
  C      -0.742463     -3.333487     -1.718231
  C      -0.872429     -1.886502      0.623195
  Br     -2.416629     -1.639073     -3.444853
  O      -0.776641     -1.923011      1.747382
  O       1.016183     -0.466604     -2.616448
  O      -0.352230     -4.345390     -2.028063
28
Coordinates from ORCA-job Mn_byp_Br_CO3_zero_singlet_triplet E -4560.344349369908
  C      -3.167784      0.225785      0.023576
  C      -1.006113      1.265793     -0.243697
  C      -1.533379      2.488527     -0.092945
  C      -2.963925      2.637673      0.096828
  C      -3.735895      1.523441      0.136399
  C      -3.901691     -0.936589      0.011304
  C      -3.884256     -3.259464     -0.530901
  C      -5.176272     -3.417809     -0.113916
  C      -5.888343     -2.268719      0.347022
  C      -5.271274     -1.058613      0.400098
  H       0.061016      1.153449     -0.387794
  H      -0.877946      3.348034     -0.112839
  H      -3.412814      3.616142      0.193004
  H      -4.805226      1.619781      0.241717
  H      -3.331164     -4.102294     -0.924699
  H      -5.639723     -4.392190     -0.167105
  H      -6.922048     -2.351978      0.658875
  H      -5.805026     -0.196207      0.765844
  N      -3.237940     -2.069689     -0.481853
  N      -1.749322      0.092275     -0.165518
  Mn     -1.428519     -1.537664     -1.286638
  C       0.133056     -0.885136     -2.073089
  C      -0.765244     -3.341577     -1.731587
  C      -0.814595     -1.951914      0.631117
  Br     -2.404870     -1.562735     -3.455332
  O      -0.663181     -2.047244      1.724865
  O       1.064554     -0.496220     -2.569727
  O      -0.399642     -4.340381     -2.074127
28
Coordinates from ORCA-job Mn_byp_Br_CO3_zero_singlet_triplet E -4560.352425654741
  C      -3.166735      0.232733      0.027076
  C      -1.005773      1.249475     -0.249972
  C      -1.517924      2.486812     -0.097409
  C      -2.937219      2.644693      0.097826
  C      -3.718223      1.532130      0.147110
  C      -3.912929     -0.945313      0.009360
  C      -3.886953     -3.246252     -0.545475
  C      -5.182728     -3.424126     -0.132765
  C      -5.889254     -2.292276      0.349087
  C      -5.270893     -1.078349      0.414482
  H       0.058830      1.113264     -0.387382
  H      -0.856315      3.341148     -0.111502
  H      -3.375098      3.629106      0.183885
  H      -4.789153      1.628913      0.254276
  H      -3.322882     -4.075583     -0.952423
  H      -5.643514     -4.398410     -0.198350
  H      -6.917857     -2.389472      0.672536
  H      -5.796197     -0.218120      0.801147
  N      -3.254436     -2.061125     -0.489207
  N      -1.758448      0.091093     -0.178883
  Mn     -1.430745     -1.542691     -1.284241
  C       0.114187     -0.873766     -2.072346
  C      -0.751175     -3.335943     -1.723710
  C      -0.845428     -1.915594      0.628911
  Br     -2.413120     -1.605261     -3.448649
  O      -0.725041     -1.976700      1.744375
  O       1.039190     -0.473059     -2.587516
  O      -0.371729     -4.342848     -2.051357
28
Coordinates from ORCA-job Mn_byp_Br_CO3_zero_singlet_triplet E -4560.352634121602
  C      -3.166220      0.233348      0.028609
  C      -1.004380      1.243747     -0.239453
  C      -1.515274      2.484471     -0.097545
  C      -2.933036      2.645443      0.088159
  C      -3.715627      1.532445      0.140211
  C      -3.915604     -0.948516      0.010907
  C      -3.886646     -3.243601     -0.544810
  C      -5.184520     -3.425152     -0.136562
  C      -5.889983     -2.297799      0.349368
  C      -5.270613     -1.083174      0.419129
  H       0.060835      1.102129     -0.364730
  H      -0.852239      3.337732     -0.109087
  H      -3.369398      3.631290      0.164003
  H      -4.787697      1.629272      0.240458
  H      -3.319873     -4.069982     -0.954085
  H      -5.644919     -4.399222     -0.206345
  H      -6.917816     -2.397799      0.674100
  H      -5.794142     -0.223565      0.810520
  N      -3.257230     -2.059867     -0.486117
  N      -1.759158      0.087813     -0.170190
  Mn     -1.432860     -1.537812     -1.283573
  C       0.109298     -0.867656     -2.070341
  C      -0.758089     -3.335187     -1.727947
  C      -0.836379     -1.907827      0.628271
  Br     -2.421862     -1.607312     -3.444340
  O      -0.716286     -1.960580      1.746850
  O       1.034498     -0.464292     -2.587096
  O      -0.382344     -4.343872     -2.059481
28
Coordinates from ORCA-job Mn_byp_Br_CO3_zero_singlet_triplet E -4560.350371829798
  C      -3.159902      0.233289      0.037667
  C      -1.002032      1.231180     -0.191195
  C      -1.518925      2.477846     -0.099596
  C      -2.932943      2.644780      0.040799
  C      -3.714654      1.525481      0.102767
  C      -3.917626     -0.961292      0.025367
  C      -3.887797     -3.237810     -0.543831
  C      -5.191621     -3.422838     -0.145534
  C      -5.891491     -2.307566      0.353067
  C      -5.264905     -1.092613      0.437951
  H       0.066343      1.082259     -0.271346
  H      -0.855333      3.331112     -0.109035
  H      -3.370869      3.631875      0.075999
  H      -4.790138      1.618545      0.172477
  H      -3.318011     -4.058601     -0.959668
  H      -5.654086     -4.394900     -0.228781
  H      -6.918535     -2.410558      0.678931
  H      -5.782627     -0.234974      0.842239
  N      -3.260702     -2.058818     -0.471593
  N      -1.757208      0.076009     -0.121787
  Mn     -1.437608     -1.514576     -1.279523
  C       0.104380     -0.850204     -2.054776
  C      -0.797593     -3.337204     -1.748060
  C      -0.772393     -1.900517      0.629158
  Br     -2.451467     -1.584955     -3.431709
  O      -0.636641     -1.938544      1.752111
  O       1.036772     -0.442726     -2.564443
  O      -0.449955     -4.349204     -2.108776
28
Coordinates from ORCA-job Mn_byp_Br_CO3_zero_singlet_triplet E -4560.346098872787
  C      -3.147897      0.235994      0.045512
  C      -1.006668      1.224762     -0.127321
  C      -1.535136      2.476595     -0.098984
  C      -2.939823      2.643933     -0.021543
  C      -3.717605      1.511780      0.048929
  C      -3.916820     -0.979290      0.042868
  C      -3.893055     -3.231059     -0.549234
  C      -5.202290     -3.415445     -0.153304
  C      -5.891043     -2.315517      0.364163
  C      -5.251820     -1.100776      0.465092
  H       0.063869      1.072807     -0.154319
  H      -0.873772      3.332313     -0.106904
  H      -3.383156      3.628763     -0.035803
  H      -4.796167      1.595139      0.077392
  H      -3.324502     -4.045936     -0.976936
  H      -5.670298     -4.383599     -0.252565
  H      -6.916531     -2.418793      0.694323
  H      -5.759960     -0.245455      0.886524
  N      -3.265195     -2.058515     -0.461111
  N      -1.757774      0.069829     -0.062514
  Mn     -1.441179     -1.486653     -1.275679
  C       0.109511     -0.840092     -2.033658
  C      -0.847865     -3.347837     -1.767122
  C      -0.674565     -1.904995      0.636415
  Br     -2.485047     -1.537638     -3.424986
  O      -0.516057     -1.931851      1.762635
  O       1.058499     -0.434647     -2.525529
  O      -0.545219     -4.359338     -2.177462
28
Coordinates from ORCA-job Mn_byp_Br_CO3_zero_singlet_triplet E -4560.342150509880
  C      -3.128115      0.246512      0.045433
  C      -1.023813      1.233791     -0.076621
  C      -1.567535      2.493455     -0.093027
  C      -2.952246      2.649570     -0.066002
  C      -3.722235      1.496149      0.005323
  C      -3.913714     -1.000411      0.049361
  C      -3.904312     -3.223110     -0.564044
  C      -5.217552     -3.403203     -0.157952
  C      -5.888803     -2.319821      0.377974
  C      -5.231294     -1.104636      0.486739
  H       0.046808      1.080615     -0.067438
  H      -0.912345      3.354669     -0.097695
  H      -3.405867      3.628455     -0.114167
  H      -4.802559      1.562354      0.000774
  H      -3.340630     -4.031588     -1.008216
  H      -5.694219     -4.366253     -0.268681
  H      -6.911234     -2.419765      0.717724
  H      -5.725784     -0.249214      0.924277
  N      -3.273968     -2.059320     -0.465838
  N      -1.763847      0.084149     -0.023261
  Mn     -1.444376     -1.470574     -1.279958
  C       0.127348     -0.855801     -2.021907
  C      -0.877314     -3.377985     -1.765975
  C      -0.568317     -1.923181      0.658468
  Br     -2.517796     -1.485250     -3.436697
  O      -0.392759     -1.940283      1.790099
  O       1.103742     -0.464057     -2.487693
  O      -0.624831     -4.380790     -2.242118
28
Coordinates from ORCA-job Mn_byp_Br_CO3_zero_singlet_triplet E -4560.342598999953
  C      -3.113376      0.267870      0.025817
  C      -1.048595      1.264772     -0.074305
  C      -1.605647      2.536639     -0.070659
  C      -2.972505      2.670646     -0.050372
  C      -3.735551      1.499783     -0.001557
  C      -3.910695     -1.006552      0.027755
  C      -3.911130     -3.225047     -0.568298
  C      -5.224279     -3.395417     -0.143305
  C      -5.886349     -2.311645      0.385190
  C      -5.218700     -1.092846      0.473156
  H       0.022050      1.110921     -0.082164
  H      -0.958207      3.403635     -0.066393
  H      -3.440694      3.643800     -0.086939
  H      -4.816182      1.552410     -0.013398
  H      -3.352954     -4.034755     -1.016340
  H      -5.706046     -4.357407     -0.243102
  H      -6.906784     -2.403198      0.732383
  H      -5.707725     -0.229846      0.902662
  N      -3.277418     -2.065215     -0.483944
  N      -1.774332      0.130158     -0.040561
  Mn     -1.444880     -1.491858     -1.296323
  C       0.153404     -0.908271     -2.039597
  C      -0.846526     -3.428974     -1.748548
  C      -0.505280     -1.976050      0.702563
  Br     -2.545913     -1.447918     -3.468175
  O      -0.327693     -2.001178      1.837006
  O       1.157491     -0.540515     -2.480949
  O      -0.623048     -4.409467     -2.292723
28
Coordinates from ORCA-job Mn_byp_Br_CO3_zero_singlet_triplet E -4560.351344423927
  C      -3.150337      0.287270      0.039002
  C      -1.052747      1.307951     -0.058926
  C      -1.621908      2.565167     -0.054987
  C      -3.013376      2.686896     -0.037214
  C      -3.775362      1.531925      0.009534
  C      -3.929543     -0.986321      0.038901
  C      -3.928728     -3.229483     -0.563113
  C      -5.240332     -3.389637     -0.141399
  C      -5.907734     -2.296794      0.389849
  C      -5.246602     -1.081904      0.481388
  H       0.021535      1.176191     -0.064628
  H      -0.982699      3.437676     -0.048868
  H      -3.486323      3.658315     -0.074773
  H      -4.854514      1.591099     -0.005990
  H      -3.380630     -4.048928     -1.006709
  H      -5.724355     -4.350582     -0.241335
  H      -6.929373     -2.388339      0.733583
  H      -5.742358     -0.222209      0.908849
  N      -3.273080     -2.068133     -0.483188
  N      -1.766690      0.156547     -0.028349
  Mn     -1.378933     -1.535003     -1.324470
  C       0.217098     -0.963817     -2.084815
  C      -0.809052     -3.491776     -1.803738
  C      -0.430601     -2.018838      0.751250
  Br     -2.512604     -1.461198     -3.503376
  O      -0.243978     -2.037309      1.867402
  O       1.213882     -0.607967     -2.533190
  O      -0.598221     -4.466321     -2.341809
28
Coordinates from ORCA-job Mn_byp_Br_CO3_zero_singlet_triplet E -4560.351738692922
  C      -3.142199      0.306407     -0.007475
  C      -1.080067      1.310862     -0.044530
  C      -1.643006      2.587564     -0.011745
  C      -3.012656      2.701663     -0.015258
  C      -3.778691      1.536390     -0.009641
  C      -3.929234     -0.988673     -0.002036
  C      -3.925571     -3.223284     -0.570946
  C      -5.234290     -3.384855     -0.125452
  C      -5.893158     -2.295959      0.402635
  C      -5.227230     -1.073327      0.464043
  H      -0.008328      1.160179     -0.059796
  H      -1.002327      3.458097      0.016009
  H      -3.487652      3.673195     -0.035888
  H      -4.858165      1.587814     -0.032644
  H      -3.375352     -4.039768     -1.016884
  H      -5.717597     -4.347660     -0.210501
  H      -6.908202     -2.386619      0.765023
  H      -5.712960     -0.205576      0.887984
  N      -3.281836     -2.061822     -0.512144
  N      -1.796251      0.190072     -0.068814
  Mn     -1.384187     -1.558099     -1.341428
  C       0.215850     -0.996627     -2.105673
  C      -0.783279     -3.529465     -1.784041
  C      -0.411166     -2.030619      0.776761
  Br     -2.544202     -1.462800     -3.531468
  O      -0.244347     -2.029376      1.901739
  O       1.225468     -0.649580     -2.550271
  O      -0.586928     -4.493656     -2.358676
28
Coordinates from ORCA-job Mn_byp_Br_CO3_zero_singlet_triplet E -4560.359294992469
  C      -3.157310      0.306741     -0.045421
  C      -1.086423      1.305894     -0.082716
  C      -1.628621      2.584571      0.015629
  C      -3.004796      2.700201      0.041097
  C      -3.779766      1.549987      0.010225
  C      -3.927711     -0.967351     -0.041913
  C      -3.901444     -3.220207     -0.552629
  C      -5.205029     -3.391212     -0.108457
  C      -5.880576     -2.289550      0.393458
  C      -5.230712     -1.062765      0.424894
  H      -0.017014      1.150730     -0.154531
  H      -0.981170      3.448670      0.049680
  H      -3.473742      3.675397      0.061504
  H      -4.858747      1.611705      0.002335
  H      -3.339835     -4.040762     -0.977879
  H      -5.673539     -4.362849     -0.169169
  H      -6.894908     -2.383596      0.757325
  H      -5.725116     -0.189398      0.826720
  N      -3.273868     -2.049411     -0.520494
  N      -1.813878      0.198769     -0.118984
  Mn     -1.378567     -1.591927     -1.339168
  C       0.200877     -1.010192     -2.120583
  C      -0.760411     -3.533828     -1.788197
  C      -0.488539     -2.027904      0.794569
  Br     -2.549958     -1.474657     -3.525917
  O      -0.350689     -2.022730      1.920709
  O       1.194031     -0.655711     -2.589940
  O      -0.540104     -4.504137     -2.343267
28
Coordinates from ORCA-job Mn_byp_Br_CO3_zero_singlet_triplet E -4560.367560573090
  C      -3.166979      0.304134     -0.056749
  C      -1.086566      1.306581     -0.140830
  C      -1.615681      2.579967      0.010570
  C      -2.997315      2.694399      0.085907
  C      -3.778009      1.555600      0.047803
  C      -3.916083     -0.952995     -0.056891
  C      -3.877717     -3.214758     -0.545412
  C      -5.179456     -3.390947     -0.111026
  C      -5.867900     -2.284864      0.376532
  C      -5.227802     -1.058710      0.401343
  H      -0.021182      1.156138     -0.266787
  H      -0.965734      3.441815      0.040778
  H      -3.462016      3.669802      0.154139
  H      -4.855744      1.626041      0.069787
  H      -3.309241     -4.037243     -0.956596
  H      -5.638440     -4.367641     -0.161730
  H      -6.884742     -2.381517      0.732544
  H      -5.731926     -0.184766      0.787766
  N      -3.256219     -2.037034     -0.516300
  N      -1.827124      0.205163     -0.167016
  Mn     -1.368924     -1.634589     -1.324536
  C       0.185756     -1.028249     -2.113912
  C      -0.743952     -3.542790     -1.792587
  C      -0.567113     -2.020241      0.819470
  Br     -2.560627     -1.468422     -3.507349
  O      -0.464553     -2.002875      1.947528
  O       1.158456     -0.661186     -2.608755
  O      -0.500731     -4.516337     -2.328810
28
Coordinates from ORCA-job Mn_byp_Br_CO3_zero_singlet_triplet E -4560.371797540740
  C      -3.167041      0.306685     -0.049577
  C      -1.085940      1.313428     -0.187032
  C      -1.614735      2.581933     -0.016022
  C      -2.995830      2.695120      0.105663
  C      -3.777669      1.557535      0.082671
  C      -3.905359     -0.950522     -0.053765
  C      -3.863182     -3.212647     -0.551169
  C      -5.165729     -3.388410     -0.125137
  C      -5.860270     -2.285113      0.363185
  C      -5.222722     -1.059829      0.395703
  H      -0.024191      1.169109     -0.343310
  H      -0.966724      3.446027     -0.002834
  H      -3.459116      3.668650      0.203091
  H      -4.853579      1.631835      0.136404
  H      -3.292890     -4.035529     -0.956887
  H      -5.621872     -4.366595     -0.178508
  H      -6.879578     -2.383184      0.711711
  H      -5.733179     -0.188885      0.779121
  N      -3.239864     -2.031124     -0.511098
  N      -1.833912      0.212634     -0.192851
  Mn     -1.362545     -1.665811     -1.308724
  C       0.181048     -1.050910     -2.092754
  C      -0.740055     -3.559194     -1.792640
  C      -0.600600     -2.021905      0.848067
  Br     -2.570946     -1.431391     -3.492807
  O      -0.525376     -1.992676      1.976820
  O       1.144479     -0.676599     -2.597067
  O      -0.490187     -4.528154     -2.331372
28
Coordinates from ORCA-job Mn_byp_Br_CO3_zero_singlet_triplet E -4560.373699166999
  C      -3.165059      0.313969     -0.038012
  C      -1.085124      1.324659     -0.223489
  C      -1.621033      2.588495     -0.050042
  C      -2.999199      2.701102      0.110752
  C      -3.780172      1.560314      0.111563
  C      -3.897274     -0.953610     -0.046039
  C      -3.850241     -3.213024     -0.561040
  C      -5.154094     -3.387944     -0.141444
  C      -5.853163     -2.291154      0.352978
  C      -5.217027     -1.065439      0.397013
  H      -0.025597      1.185435     -0.393527
  H      -0.978298      3.457266     -0.058723
  H      -3.462138      3.672712      0.224390
  H      -4.853506      1.637095      0.197029
  H      -3.278986     -4.035996     -0.962879
  H      -5.608735     -4.366809     -0.201635
  H      -6.873817     -2.391790      0.696749
  H      -5.732743     -0.199557      0.783766
  N      -3.223727     -2.028217     -0.509667
  N      -1.837425      0.222742     -0.208369
  Mn     -1.356535     -1.689216     -1.291746
  C       0.185815     -1.085550     -2.065391
  C      -0.753285     -3.582518     -1.797123
  C      -0.607559     -2.027104      0.884639
  Br     -2.576258     -1.355125     -3.478450
  O      -0.560227     -1.983676      2.013282
  O       1.147717     -0.710968     -2.571543
  O      -0.509874     -4.541618     -2.354162
28
Coordinates from ORCA-job Mn_byp_Br_CO3_zero_singlet_triplet E -4560.373505760659
  C      -3.163530      0.319436     -0.032073
  C      -1.086425      1.334169     -0.244442
  C      -1.629737      2.594940     -0.073274
  C      -3.004777      2.706034      0.108919
  C      -3.782865      1.560745      0.126411
  C      -3.894380     -0.958125     -0.041100
  C      -3.845524     -3.214378     -0.568366
  C      -5.149872     -3.389068     -0.149921
  C      -5.848984     -2.297120      0.351529
  C      -5.211938     -1.070999      0.402615
  H      -0.027213      1.197124     -0.415505
  H      -0.992447      3.467948     -0.095595
  H      -3.468658      3.676394      0.226871
  H      -4.854224      1.636830      0.234183
  H      -3.275431     -4.037238     -0.971270
  H      -5.605473     -4.367136     -0.217395
  H      -6.869450     -2.399152      0.695352
  H      -5.728381     -0.208110      0.795015
  N      -3.215533     -2.029040     -0.513524
  N      -1.836895      0.229627     -0.218174
  Mn     -1.353354     -1.698827     -1.283128
  C       0.197199     -1.117067     -2.048557
  C      -0.767612     -3.599081     -1.801088
  C      -0.601654     -2.029527      0.912081
  Br     -2.567464     -1.282044     -3.473462
  O      -0.575891     -1.975658      2.040477
  O       1.163544     -0.747743     -2.550802
  O      -0.530598     -4.548458     -2.376895
28
Coordinates from ORCA-job Mn_byp_Br_CO3_zero_singlet_triplet E -4560.372977624193
  C      -3.163997      0.321030     -0.033802
  C      -1.089109      1.337778     -0.255755
  C      -1.634613      2.597489     -0.082460
  C      -3.007742      2.707509      0.108029
  C      -3.783703      1.559497      0.130854
  C      -3.895063     -0.961205     -0.040618
  C      -3.845063     -3.215886     -0.569419
  C      -5.149562     -3.391645     -0.150720
  C      -5.847544     -2.301532      0.354044
  C      -5.209179     -1.075106      0.406512
  H      -0.029759      1.199734     -0.425047
  H      -0.999890      3.472418     -0.107781
  H      -3.471794      3.677529      0.227063
  H      -4.853979      1.634002      0.250985
  H      -3.276254     -4.038607     -0.974884
  H      -5.606177     -4.368801     -0.222959
  H      -6.867469     -2.404008      0.699183
  H      -5.724326     -0.212645      0.801861
  N      -3.212715     -2.031681     -0.516776
  N      -1.836147      0.231095     -0.229666
  Mn     -1.353312     -1.701052     -1.281845
  C       0.207364     -1.139149     -2.042724
  C      -0.777063     -3.607079     -1.803943
  C      -0.594732     -2.024357      0.928000
  Br     -2.556582     -1.226674     -3.473531
  O      -0.587500     -1.960714      2.056194
  O       1.178290     -0.774100     -2.540101
  O      -0.539944     -4.549364     -2.391812
28
Coordinates from ORCA-job Mn_byp_Br_CO3_zero_singlet_triplet E -4560.372354315834
  C      -3.165537      0.319033     -0.041264
  C      -1.094739      1.337409     -0.275910
  C      -1.637688      2.596543     -0.089894
  C      -3.008011      2.705400      0.113523
  C      -3.781466      1.555188      0.138152
  C      -3.898141     -0.963671     -0.044748
  C      -3.846271     -3.218428     -0.566627
  C      -5.150381     -3.396582     -0.146592
  C      -5.847661     -2.306244      0.357809
  C      -5.208163     -1.079262      0.406791
  H      -0.036543      1.196935     -0.451681
  H      -1.004022      3.472134     -0.115611
  H      -3.470746      3.675178      0.238768
  H      -4.850182      1.627031      0.274232
  H      -3.278199     -4.041770     -0.973127
  H      -5.606620     -4.373573     -0.220339
  H      -6.866812     -2.408607      0.705024
  H      -5.721389     -0.215533      0.802290
  N      -3.212121     -2.035956     -0.521250
  N      -1.836485      0.227864     -0.254619
  Mn     -1.357208     -1.702194     -1.284212
  C       0.219740     -1.166380     -2.040155
  C      -0.784600     -3.611388     -1.804300
  C      -0.590058     -2.011111      0.946670
  Br     -2.538300     -1.146228     -3.475066
  O      -0.616211     -1.932502      2.073829
  O       1.196403     -0.804787     -2.529067
  O      -0.536152     -4.544021     -2.403743
28
Coordinates from ORCA-job Mn_byp_Br_CO3_zero_singlet_triplet E -4560.371732425529
  C      -3.168818      0.311877     -0.053351
  C      -1.101242      1.328214     -0.302387
  C      -1.635015      2.587587     -0.095051
  C      -3.002439      2.697776      0.124226
  C      -3.775271      1.547984      0.147190
  C      -3.904124     -0.965262     -0.052414
  C      -3.846191     -3.222924     -0.556832
  C      -5.150272     -3.404697     -0.138093
  C      -5.850626     -2.311933      0.358126
  C      -5.212216     -1.083715      0.399718
  H      -0.046141      1.184106     -0.494937
  H      -0.998643      3.460929     -0.119198
  H      -3.460867      3.668017      0.260822
  H      -4.842123      1.618069      0.299142
  H      -3.275968     -4.047861     -0.958638
  H      -5.602816     -4.383414     -0.208219
  H      -6.870012     -2.414208      0.704332
  H      -5.726067     -0.217224      0.788698
  N      -3.213204     -2.040954     -0.522003
  N      -1.839593      0.216683     -0.290765
  Mn     -1.366146     -1.700334     -1.288136
  C       0.228740     -1.192797     -2.041523
  C      -0.794604     -3.608063     -1.802602
  C      -0.580523     -1.987987      0.967169
  Br     -2.522825     -1.037674     -3.467444
  O      -0.658165     -1.887170      2.090544
  O       1.210345     -0.830875     -2.519483
  O      -0.522739     -4.529672     -2.410007
28
Coordinates from ORCA-job Mn_byp_Br_CO3_zero_singlet_triplet E -4560.370828509061
  C      -3.172749      0.297617     -0.068146
  C      -1.109267      1.306646     -0.350369
  C      -1.624823      2.566199     -0.107285
  C      -2.986357      2.681365      0.145584
  C      -3.761327      1.535410      0.168632
  C      -3.913512     -0.966672     -0.063957
  C      -3.847188     -3.229541     -0.546090
  C      -5.150560     -3.415253     -0.128443
  C      -5.856874     -2.318642      0.354448
  C      -5.221992     -1.088855      0.385910
  H      -0.061601      1.159556     -0.579063
  H      -0.980812      3.433385     -0.133263
  H      -3.435085      3.652389      0.306420
  H      -4.824263      1.604949      0.346816
  H      -3.271974     -4.056796     -0.937045
  H      -5.596205     -4.397614     -0.188378
  H      -6.876801     -2.421231      0.698629
  H      -5.738824     -0.219257      0.764193
  N      -3.219065     -2.045610     -0.523951
  N      -1.847896      0.194741     -0.345783
  Mn     -1.382493     -1.696857     -1.294176
  C       0.232221     -1.215666     -2.046779
  C      -0.798738     -3.591255     -1.789673
  C      -0.574902     -1.953368      0.994422
  Br     -2.506060     -0.890774     -3.447739
  O      -0.738451     -1.821915      2.105875
  O       1.218020     -0.847454     -2.508566
  O      -0.479985     -4.501021     -2.393340
28
Coordinates from ORCA-job Mn_byp_Br_CO3_zero_singlet_triplet E -4560.369948257655
  C      -3.176131      0.279704     -0.083656
  C      -1.115653      1.275112     -0.414260
  C      -1.605739      2.533674     -0.124416
  C      -2.957272      2.657413      0.178858
  C      -3.739869      1.519719      0.201152
  C      -3.924354     -0.968893     -0.077729
  C      -3.855574     -3.235332     -0.552307
  C      -5.155158     -3.423736     -0.126367
  C      -5.862955     -2.325424      0.354035
  C      -5.232412     -1.094727      0.377150
  H      -0.079481      1.127267     -0.689330
  H      -0.949005      3.390812     -0.152614
  H      -3.389417      3.628503      0.379791
  H      -4.795987      1.590777      0.415785
  H      -3.276509     -4.063081     -0.936320
  H      -5.594814     -4.409525     -0.172744
  H      -6.880457     -2.429961      0.704730
  H      -5.750059     -0.224718      0.753487
  N      -3.234549     -2.047490     -0.538170
  N      -1.862165      0.166947     -0.410346
  Mn     -1.401789     -1.694084     -1.307524
  C       0.227142     -1.218588     -2.060168
  C      -0.780581     -3.558660     -1.754591
  C      -0.597132     -1.902547      1.017840
  Br     -2.488891     -0.776684     -3.439315
  O      -0.867859     -1.737932      2.104556
  O       1.213370     -0.837615     -2.506479
  O      -0.394264     -4.466453     -2.322166
28
Coordinates from ORCA-job Mn_byp_Br_CO3_zero_singlet_triplet E -4560.370096163630
  C      -3.177544      0.259446     -0.092060
  C      -1.114256      1.232867     -0.472058
  C      -1.575242      2.490116     -0.137376
  C      -2.915409      2.627171      0.215761
  C      -3.713585      1.503473      0.236344
  C      -3.932653     -0.975501     -0.084356
  C      -3.868689     -3.241568     -0.575916
  C      -5.164375     -3.429852     -0.139847
  C      -5.868123     -2.333468      0.353005
  C      -5.241159     -1.103262      0.378853
  H      -0.091981      1.085757     -0.792730
  H      -0.901759      3.333890     -0.168659
  H      -3.325272      3.598225      0.459468
  H      -4.761906      1.580447      0.484475
  H      -3.288951     -4.066000     -0.964398
  H      -5.603512     -4.416365     -0.181130
  H      -6.882501     -2.441407      0.711998
  H      -5.758254     -0.236008      0.762195
  N      -3.254928     -2.049383     -0.553776
  N      -1.879434      0.135297     -0.462303
  Mn     -1.416398     -1.689750     -1.324282
  C       0.210387     -1.188050     -2.080754
  C      -0.751907     -3.510722     -1.701732
  C      -0.630766     -1.826598      1.028967
  Br     -2.498711     -0.740144     -3.446077
  O      -1.013459     -1.624199      2.076229
  O       1.188490     -0.785914     -2.522043
  O      -0.295670     -4.434023     -2.188918
28
Coordinates from ORCA-job Mn_byp_Br_CO3_zero_singlet_triplet E -4560.372612163861
  C      -3.172930      0.251365     -0.087283
  C      -1.106523      1.209872     -0.504510
  C      -1.552441      2.465652     -0.142766
  C      -2.883046      2.609878      0.243813
  C      -3.695803      1.496876      0.267045
  C      -3.929622     -0.984155     -0.081973
  C      -3.876653     -3.246734     -0.603605
  C      -5.171467     -3.429053     -0.162253
  C      -5.867715     -2.335714      0.347382
  C      -5.240551     -1.107460      0.385157
  H      -0.093826      1.066609     -0.851948
  H      -0.870952      3.303044     -0.180338
  H      -3.277784      3.579801      0.515933
  H      -4.737733      1.580756      0.537686
  H      -3.300669     -4.067007     -1.003774
  H      -5.618571     -4.412089     -0.209943
  H      -6.881207     -2.444791      0.709167
  H      -5.756430     -0.243813      0.777673
  N      -3.264592     -2.052897     -0.562329
  N      -1.890293      0.125338     -0.478498
  Mn     -1.414134     -1.694959     -1.333062
  C       0.189569     -1.143008     -2.092775
  C      -0.724075     -3.477015     -1.664346
  C      -0.665835     -1.777397      1.027727
  Br     -2.536966     -0.819790     -3.466454
  O      -1.110124     -1.552769      2.046033
  O       1.153485     -0.723119     -2.546582
  O      -0.230675     -4.422942     -2.066295
28
Coordinates from ORCA-job Mn_byp_Br_CO3_zero_singlet_triplet E -4560.375961847120
  C      -3.167160      0.256627     -0.079497
  C      -1.100468      1.217991     -0.516189
  C      -1.549903      2.470595     -0.142588
  C      -2.875050      2.610204      0.260088
  C      -3.692669      1.498432      0.286882
  C      -3.918859     -0.992108     -0.075148
  C      -3.867558     -3.252599     -0.608903
  C      -5.167887     -3.428502     -0.180140
  C      -5.863883     -2.336272      0.329714
  C      -5.234633     -1.109098      0.381259
  H      -0.089581      1.080550     -0.867949
  H      -0.873609      3.312590     -0.182902
  H      -3.267117      3.577621      0.545107
  H      -4.729843      1.584656      0.573309
  H      -3.293507     -4.071483     -1.013792
  H      -5.624149     -4.406688     -0.242478
  H      -6.882215     -2.443660      0.678432
  H      -5.754141     -0.246394      0.770218
  N      -3.252341     -2.060205     -0.553736
  N      -1.890437      0.138811     -0.478078
  Mn     -1.399736     -1.702480     -1.328550
  C       0.179666     -1.133852     -2.095434
  C      -0.736712     -3.476310     -1.664480
  C      -0.660014     -1.759619      1.032564
  Br     -2.578326     -0.893798     -3.462582
  O      -1.125295     -1.519974      2.037027
  O       1.135487     -0.715407     -2.568281
  O      -0.247623     -4.445153     -2.014993
28
Coordinates from ORCA-job Mn_byp_Br_CO3_zero_singlet_triplet E -4560.379141649854
  C      -3.154353      0.262672     -0.065547
  C      -1.101173      1.246402     -0.537344
  C      -1.561834      2.492551     -0.150625
  C      -2.877318      2.615195      0.281116
  C      -3.686659      1.494147      0.320797
  C      -3.903084     -0.999794     -0.066113
  C      -3.855745     -3.259004     -0.604521
  C      -5.164148     -3.427428     -0.196729
  C      -5.861051     -2.332316      0.303038
  C      -5.224912     -1.107541      0.368966
  H      -0.092317      1.119406     -0.898378
  H      -0.901633      3.347204     -0.199853
  H      -3.273193      3.577010      0.579599
  H      -4.715671      1.574287      0.635784
  H      -3.283252     -4.079504     -1.008896
  H      -5.629999     -4.399804     -0.275176
  H      -6.886989     -2.433456      0.630758
  H      -5.748142     -0.242953      0.747591
  N      -3.231381     -2.072182     -0.540598
  N      -1.881056      0.161496     -0.484669
  Mn     -1.383063     -1.709752     -1.319846
  C       0.181014     -1.152379     -2.100957
  C      -0.758804     -3.476846     -1.672631
  C      -0.649522     -1.759932      1.047676
  Br     -2.607858     -0.946812     -3.447284
  O      -1.131877     -1.516610      2.041946
  O       1.134358     -0.752868     -2.595599
  O      -0.277905     -4.466714     -1.973622
28
Coordinates from ORCA-job Mn_byp_Br_CO3_zero_singlet_triplet E -4560.380425077753
  C      -3.143791      0.263083     -0.061069
  C      -1.108446      1.268027     -0.559739
  C      -1.573911      2.509182     -0.160960
  C      -2.880094      2.616506      0.298277
  C      -3.676705      1.484878      0.347158
  C      -3.893962     -1.002276     -0.064050
  C      -3.850581     -3.261096     -0.596363
  C      -5.163329     -3.426999     -0.200434
  C      -5.860330     -2.327928      0.288612
  C      -5.217949     -1.105020      0.357758
  H      -0.103224      1.147423     -0.934899
  H      -0.925983      3.372621     -0.218209
  H      -3.279123      3.572774      0.609798
  H      -4.697627      1.555266      0.689437
  H      -3.277518     -4.084855     -0.994665
  H      -5.631570     -4.397708     -0.281719
  H      -6.890211     -2.423480      0.605379
  H      -5.742337     -0.237347      0.727310
  N      -3.219338     -2.079495     -0.534720
  N      -1.872849      0.173670     -0.503249
  Mn     -1.377180     -1.709773     -1.319000
  C       0.191554     -1.175264     -2.106991
  C      -0.769425     -3.464038     -1.680177
  C      -0.655788     -1.769627      1.062803
  Br     -2.609954     -0.950089     -3.441619
  O      -1.161988     -1.533339      2.046867
  O       1.149450     -0.797304     -2.609799
  O      -0.285357     -4.463315     -1.946855
28
Coordinates from ORCA-job Mn_byp_Br_CO3_zero_singlet_triplet E -4560.381233834023
  C      -3.136641      0.263344     -0.064360
  C      -1.114879      1.285869     -0.565952
  C      -1.584117      2.524207     -0.163611
  C      -2.887385      2.619730      0.305828
  C      -3.671119      1.478659      0.354728
  C      -3.888220     -0.999449     -0.066668
  C      -3.843567     -3.259487     -0.581190
  C      -5.158652     -3.427194     -0.191596
  C      -5.857919     -2.324327      0.283696
  C      -5.212825     -1.101393      0.346805
  H      -0.110849      1.167367     -0.947533
  H      -0.943473      3.392580     -0.222753
  H      -3.291819      3.571580      0.623360
  H      -4.688413      1.539415      0.709900
  H      -3.266985     -4.087193     -0.967733
  H      -5.622930     -4.400086     -0.265692
  H      -6.889655     -2.416203      0.595299
  H      -5.739320     -0.230461      0.705860
  N      -3.210739     -2.080849     -0.529399
  N      -1.863818      0.181845     -0.515836
  Mn     -1.374862     -1.699173     -1.324524
  C       0.208517     -1.193235     -2.111926
  C      -0.785600     -3.441290     -1.701644
  C      -0.666866     -1.794537      1.069931
  Br     -2.607005     -0.947967     -3.443962
  O      -1.190995     -1.574527      2.049001
  O       1.176403     -0.843324     -2.615696
  O      -0.303830     -4.449423     -1.945451
28
Coordinates from ORCA-job Mn_byp_Br_CO3_zero_singlet_triplet E -4560.381268548860
  C      -3.135984      0.264647     -0.070117
  C      -1.120523      1.292816     -0.569831
  C      -1.588415      2.530600     -0.166551
  C      -2.891677      2.623273      0.304541
  C      -3.669844      1.479064      0.351260
  C      -3.887526     -0.994150     -0.069972
  C      -3.835719     -3.256400     -0.570317
  C      -5.150079     -3.428736     -0.179122
  C      -5.853721     -2.325231      0.288251
  C      -5.211740     -1.100159      0.342876
  H      -0.117724      1.173070     -0.955369
  H      -0.947541      3.398473     -0.226594
  H      -3.297966      3.573672      0.623647
  H      -4.686824      1.535972      0.708267
  H      -3.255331     -4.085346     -0.948892
  H      -5.607278     -4.405496     -0.244877
  H      -6.885073     -2.417712      0.600730
  H      -5.741743     -0.228771      0.695950
  N      -3.207561     -2.076033     -0.526789
  N      -1.862625      0.184240     -0.523175
  Mn     -1.376727     -1.686673     -1.328085
  C       0.223765     -1.203879     -2.108063
  C      -0.798347     -3.418985     -1.721420
  C      -0.681131     -1.821760      1.078036
  Br     -2.598542     -0.927609     -3.447038
  O      -1.221998     -1.617194      2.051897
  O       1.201756     -0.876211     -2.606427
  O      -0.321444     -4.431006     -1.963932
28
Coordinates from ORCA-job Mn_byp_Br_CO3_zero_singlet_triplet E -4560.381403434665
  C      -3.139210      0.270371     -0.074331
  C      -1.122405      1.298976     -0.558519
  C      -1.592739      2.538629     -0.167770
  C      -2.902619      2.633625      0.287543
  C      -3.677737      1.488571      0.331292
  C      -3.887642     -0.985909     -0.069256
  C      -3.821212     -3.250255     -0.557558
  C      -5.133423     -3.430616     -0.161468
  C      -5.844558     -2.329615      0.300327
  C      -5.210907     -1.100154      0.346011
  H      -0.117316      1.175245     -0.937330
  H      -0.948370      3.403784     -0.226947
  H      -3.313567      3.585510      0.595706
  H      -4.700090      1.545116      0.673325
  H      -3.235604     -4.078118     -0.930072
  H      -5.579895     -4.412932     -0.218474
  H      -6.874363     -2.426542      0.616324
  H      -5.746760     -0.230531      0.695250
  N      -3.203586     -2.064726     -0.520780
  N      -1.861853      0.187654     -0.514473
  Mn     -1.376640     -1.664636     -1.328609
  C       0.245679     -1.212607     -2.094816
  C      -0.824574     -3.391477     -1.757913
  C      -0.691407     -1.869570      1.086399
  Br     -2.591757     -0.910685     -3.448789
  O      -1.242539     -1.686967      2.059472
  O       1.237676     -0.917716     -2.585050
  O      -0.370146     -4.409945     -2.020613
28
Coordinates from ORCA-job Mn_byp_Br_CO3_zero_singlet_triplet E -4560.381422745535
  C      -3.144586      0.278390     -0.073303
  C      -1.126152      1.304891     -0.561546
  C      -1.597845      2.545510     -0.179404
  C      -2.910559      2.644483      0.270544
  C      -3.684828      1.500330      0.321239
  C      -3.888586     -0.978082     -0.064354
  C      -3.809167     -3.242464     -0.558863
  C      -5.117269     -3.430917     -0.153259
  C      -5.833017     -2.335882      0.316342
  C      -5.208843     -1.102206      0.360504
  H      -0.120203      1.178958     -0.936521
  H      -0.950411      3.408113     -0.242844
  H      -3.322562      3.598643      0.569918
  H      -4.709739      1.557569      0.655661
  H      -3.221214     -4.066404     -0.935186
  H      -5.555756     -4.417078     -0.208300
  H      -6.859558     -2.440243      0.640468
  H      -5.748127     -0.237454      0.716727
  N      -3.201947     -2.050663     -0.521275
  N      -1.868551      0.193315     -0.514479
  Mn     -1.373267     -1.642503     -1.324024
  C       0.270879     -1.218650     -2.070874
  C      -0.844258     -3.366160     -1.786767
  C      -0.708876     -1.916536      1.108942
  Br     -2.576326     -0.912417     -3.457949
  O      -1.275939     -1.753538      2.076317
  O       1.276038     -0.955813     -2.551197
  O      -0.416894     -4.388716     -2.077636
28
Coordinates from ORCA-job Mn_byp_Br_CO3_zero_singlet_triplet E -4560.381292040141
  C      -3.151518      0.287678     -0.068857
  C      -1.133462      1.309413     -0.584784
  C      -1.603510      2.549522     -0.201052
  C      -2.911971      2.652743      0.262132
  C      -3.688465      1.511379      0.327230
  C      -3.890054     -0.972312     -0.056379
  C      -3.801914     -3.233708     -0.572709
  C      -5.105354     -3.428657     -0.156957
  C      -5.822124     -2.341735      0.330811
  C      -5.206363     -1.104875      0.380994
  H      -0.130465      1.184388     -0.965705
  H      -0.955037      3.410866     -0.274436
  H      -3.319298      3.608953      0.561398
  H      -4.710461      1.569238      0.670418
  H      -3.215351     -4.051208     -0.963477
  H      -5.541544     -4.415609     -0.218916
  H      -6.845020     -2.454933      0.663590
  H      -5.746162     -0.246205      0.750931
  N      -3.201560     -2.036871     -0.525917
  N      -1.882644      0.199946     -0.526613
  Mn     -1.366006     -1.624173     -1.313357
  C       0.295720     -1.217795     -2.038932
  C      -0.850372     -3.346338     -1.802067
  C      -0.728477     -1.952706      1.148719
  Br     -2.557269     -0.948530     -3.474426
  O      -1.318604     -1.803045      2.103665
  O       1.310608     -0.981225     -2.511492
  O      -0.450887     -4.369723     -2.124930
28
Coordinates from ORCA-job Mn_byp_Br_CO3_zero_singlet_triplet E -4560.381249259749
  C      -3.153692      0.290601     -0.064977
  C      -1.140762      1.310434     -0.612209
  C      -1.606343      2.548830     -0.216255
  C      -2.905430      2.651915      0.271184
  C      -3.684127      1.512093      0.346118
  C      -3.890360     -0.972571     -0.052151
  C      -3.803912     -3.230067     -0.585117
  C      -5.106377     -3.425488     -0.167752
  C      -5.820906     -2.341976      0.331106
  C      -5.205642     -1.105290      0.388442
  H      -0.143643      1.189034     -1.007975
  H      -0.960500      3.411639     -0.297965
  H      -3.305596      3.607666      0.581583
  H      -4.699084      1.568976      0.709549
  H      -3.220310     -4.043930     -0.987430
  H      -5.546928     -4.409973     -0.238201
  H      -6.843093     -2.458252      0.665255
  H      -5.743508     -0.248309      0.764875
  N      -3.201397     -2.033803     -0.529407
  N      -1.892449      0.202341     -0.542346
  Mn     -1.360007     -1.621870     -1.305467
  C       0.304063     -1.208980     -2.022137
  C      -0.839925     -3.344240     -1.796277
  C      -0.735668     -1.952252      1.178336
  Br     -2.549961     -0.998020     -3.487103
  O      -1.341984     -1.801546      2.122132
  O       1.319593     -0.975992     -2.495420
  O      -0.449616     -4.366493     -2.131507
28
Coordinates from ORCA-job Mn_byp_Br_CO3_zero_singlet_triplet E -4560.381295886291
  C      -3.152540      0.289897     -0.062539
  C      -1.148562      1.311816     -0.638485
  C      -1.608099      2.547622     -0.225284
  C      -2.895827      2.646812      0.289764
  C      -3.675154      1.506800      0.369719
  C      -3.889630     -0.975062     -0.051005
  C      -3.808701     -3.228797     -0.593452
  C      -5.112337     -3.422447     -0.179361
  C      -5.824390     -2.339312      0.323638
  C      -5.205791     -1.104220      0.386566
  H      -0.158841      1.195426     -1.053264
  H      -0.966716      3.413268     -0.312822
  H      -3.288358      3.600008      0.617482
  H      -4.681408      1.560846      0.756780
  H      -3.227195     -4.041146     -1.002251
  H      -5.558590     -4.403819     -0.256211
  H      -6.847564     -2.455385      0.654984
  H      -5.741585     -0.246087      0.763130
  N      -3.200542     -2.035750     -0.531249
  N      -1.898186      0.203216     -0.558995
  Mn     -1.354746     -1.625326     -1.300479
  C       0.305527     -1.197710     -2.014465
  C      -0.825733     -3.348196     -1.783560
  C      -0.737386     -1.933525      1.200577
  Br     -2.547453     -1.056372     -3.499452
  O      -1.357606     -1.776223      2.133583
  O       1.318097     -0.961429     -2.493196
  O      -0.438251     -4.370428     -2.121274
28
Coordinates from ORCA-job Mn_byp_Br_CO3_zero_singlet_triplet E -4560.381412533976
  C      -3.150107      0.287567     -0.062799
  C      -1.154307      1.314158     -0.654014
  C      -1.608436      2.547234     -0.225294
  C      -2.888016      2.641047      0.309139
  C      -3.666571      1.499734      0.387807
  C      -3.888746     -0.977142     -0.053073
  C      -3.812207     -3.229081     -0.595362
  C      -5.117851     -3.420665     -0.186334
  C      -5.829113     -2.335828      0.313797
  C      -5.206732     -1.102322      0.378420
  H      -0.170305      1.202091     -1.083542
  H      -0.970432      3.415199     -0.313798
  H      -3.275209      3.590721      0.653106
  H      -4.666406      1.550264      0.791576
  H      -3.230788     -4.041974     -1.003801
  H      -5.567440     -4.400284     -0.264859
  H      -6.853953     -2.449935      0.640638
  H      -5.741767     -0.241620      0.750139
  N      -3.199439     -2.039102     -0.531293
  N      -1.899766      0.203747     -0.571708
  Mn     -1.351305     -1.629409     -1.299347
  C       0.303372     -1.188587     -2.014604
  C      -0.816829     -3.353166     -1.772927
  C      -0.735207     -1.908530      1.210713
  Br     -2.546158     -1.109710     -3.510958
  O      -1.363888     -1.743801      2.136536
  O       1.312086     -0.949095     -2.500410
  O      -0.432044     -4.377033     -2.108865
28
Coordinates from ORCA-job Mn_byp_Br_CO3_zero_singlet_triplet E -4560.381585140291
  C      -3.148241      0.285451     -0.065277
  C      -1.156431      1.316685     -0.656593
  C      -1.607406      2.547629     -0.218298
  C      -2.884479      2.637211      0.322810
  C      -3.661810      1.494573      0.395781
  C      -3.888424     -0.977612     -0.057063
  C      -3.812804     -3.230359     -0.591685
  C      -5.120129     -3.420583     -0.186789
  C      -5.832625     -2.333253      0.306046
  C      -5.208320     -1.100429      0.368439
  H      -0.174702      1.206908     -1.092491
  H      -0.970195      3.416334     -0.303746
  H      -3.269903      3.583911      0.676770
  H      -4.659422      1.542426      0.805428
  H      -3.229955     -4.045122     -0.994670
  H      -5.569625     -4.400397     -0.262599
  H      -6.858959     -2.445123      0.628829
  H      -5.744256     -0.237295      0.733268
  N      -3.198636     -2.041574     -0.530106
  N      -1.898540      0.204388     -0.578176
  Mn     -1.350054     -1.631712     -1.301088
  C       0.300276     -1.183698     -2.018689
  C      -0.816180     -3.356498     -1.769113
  C      -0.731147     -1.887632      1.209247
  Br     -2.543482     -1.145947     -3.520290
  O      -1.361764     -1.717477      2.132933
  O       1.306063     -0.943554     -2.510361
  O      -0.436415     -4.382775     -2.103637
28
Coordinates from ORCA-job Mn_byp_Br_CO3_zero_singlet_triplet E -4560.381767625244
  C      -3.147964      0.284693     -0.068276
  C      -1.155264      1.318193     -0.649996
  C      -1.605810      2.548211     -0.209639
  C      -2.885246      2.636520      0.327150
  C      -3.661861      1.493388      0.393906
  C      -3.888835     -0.976632     -0.060596
  C      -3.810798     -3.231897     -0.585498
  C      -5.118785     -3.421856     -0.182255
  C      -5.833671     -2.332638      0.303130
  C      -5.210003     -1.099424      0.361465
  H      -0.172461      1.208236     -1.083971
  H      -0.966910      3.415990     -0.290631
  H      -3.271921      3.582009      0.682853
  H      -4.660955      1.540449      0.800134
  H      -3.226210     -4.048571     -0.982004
  H      -5.565714     -4.403184     -0.253562
  H      -6.860807     -2.443166      0.623691
  H      -5.747950     -0.235162      0.720763
  N      -3.198352     -2.042200     -0.528388
  N      -1.896565      0.204997     -0.578335
  Mn     -1.350692     -1.631564     -1.303519
  C       0.298309     -1.183343     -2.022286
  C      -0.821851     -3.356855     -1.772460
  C      -0.727662     -1.877965      1.201054
  Br     -2.538940     -1.157791     -3.525647
  O      -1.355189     -1.705899      2.126842
  O       1.303087     -0.945036     -2.516686
  O      -0.448545     -4.385026     -2.108358
28
Coordinates from ORCA-job Mn_byp_Br_CO3_zero_singlet_triplet E -4560.381896713773
  C      -3.149032      0.285171     -0.070165
  C      -1.153483      1.318387     -0.643298
  C      -1.604719      2.548318     -0.204596
  C      -2.887331      2.637630      0.325518
  C      -3.664166      1.494930      0.388881
  C      -3.889636     -0.975356     -0.062085
  C      -3.808317     -3.232884     -0.581077
  C      -5.116070     -3.423264     -0.177376
  C      -5.832929     -2.333471      0.304148
  C      -5.211194     -1.099432      0.359546
  H      -0.168688      1.207119     -1.072538
  H      -0.963346      3.414540     -0.282499
  H      -3.275596      3.583343      0.678797
  H      -4.665426      1.542509      0.789746
  H      -3.222812     -4.050501     -0.974003
  H      -5.560350     -4.406052     -0.245644
  H      -6.860169     -2.443834      0.624385
  H      -5.750969     -0.235374      0.716661
  N      -3.198500     -2.041486     -0.527186
  N      -1.896094      0.205391     -0.576417
  Mn     -1.351896     -1.630095     -1.304628
  C       0.298233     -1.184909     -2.022326
  C      -0.827910     -3.355067     -1.778273
  C      -0.726715     -1.876952      1.193849
  Br     -2.532741     -1.155628     -3.528307
  O      -1.350599     -1.705307      2.122477
  O       1.303481     -0.949245     -2.516705
  O      -0.460591     -4.384005     -2.118005
28
Coordinates from ORCA-job Mn_byp_Br_CO3_zero_singlet_triplet E -4560.381967999897
  C      -3.150387      0.285868     -0.070606
  C      -1.152622      1.317644     -0.640737
  C      -1.604402      2.547764     -0.203839
  C      -2.888606      2.638657      0.322694
  C      -3.666167      1.496732      0.385713
  C      -3.890372     -0.974688     -0.061882
  C      -3.807058     -3.233273     -0.579686
  C      -5.114208     -3.424135     -0.174607
  C      -5.831840     -2.334613      0.306640
  C      -5.211729     -1.099947      0.360984
  H      -0.166673      1.205296     -1.066860
  H      -0.961254      3.412797     -0.280882
  H      -3.277444      3.585070      0.673428
  H      -4.668521      1.545102      0.783756
  H      -3.221582     -4.050995     -0.972201
  H      -5.557094     -4.407657     -0.241944
  H      -6.858797     -2.445371      0.627680
  H      -5.752366     -0.236616      0.718557
  N      -3.198915     -2.040637     -0.526940
  N      -1.897065      0.205315     -0.575200
  Mn     -1.352894     -1.629094     -1.304366
  C       0.299210     -1.186344     -2.019331
  C      -0.830953     -3.353133     -1.782717
  C      -0.728021     -1.878220      1.189998
  Br     -2.525564     -1.149671     -3.530066
  O      -1.349989     -1.707204      2.120202
  O       1.305353     -0.952187     -2.512353
  O      -0.467608     -4.381984     -2.126555
28
Coordinates from ORCA-job Mn_byp_Br_CO3_zero_singlet_triplet E -4560.382011208209
  C      -3.151590      0.286238     -0.069999
  C      -1.152645      1.316165     -0.641481
  C      -1.604614      2.546600     -0.205881
  C      -2.888929      2.639026      0.320140
  C      -3.667384      1.497904      0.384755
  C      -3.890964     -0.974753     -0.060692
  C      -3.807142     -3.233385     -0.580223
  C      -5.113593     -3.424634     -0.173460
  C      -5.831013     -2.335712      0.309579
  C      -5.211801     -1.100721      0.364081
  H      -0.166489      1.203178     -1.066644
  H      -0.960571      3.410965     -0.283768
  H      -3.277459      3.586232      0.669085
  H      -4.669841      1.547019      0.782425
  H      -3.222280     -4.050764     -0.974263
  H      -5.556205     -4.408274     -0.241191
  H      -6.857522     -2.446984      0.631940
  H      -5.752449     -0.238156      0.723439
  N      -3.199493     -2.040187     -0.527306
  N      -1.898695      0.204597     -0.574703
  Mn     -1.353809     -1.629222     -1.303331
  C       0.300643     -1.187420     -2.014216
  C      -0.831467     -3.351744     -1.785746
  C      -0.730480     -1.878786      1.187832
  Br     -2.517151     -1.141734     -3.531687
  O      -1.351944     -1.707719      2.118479
  O       1.307732     -0.953141     -2.505071
  O      -0.470410     -4.380114     -2.133211
28
Coordinates from ORCA-job Mn_byp_Br_CO3_zero_singlet_triplet E -4560.382024118786
  C      -3.152272      0.286054     -0.068722
  C      -1.153435      1.314408     -0.644373
  C      -1.605237      2.545258     -0.209542
  C      -2.888539      2.638693      0.318394
  C      -3.667647      1.498067      0.385608
  C      -3.891285     -0.975452     -0.059023
  C      -3.808243     -3.233336     -0.581587
  C      -5.114149     -3.424875     -0.173463
  C      -5.830739     -2.336546      0.312113
  C      -5.211514     -1.101552      0.367446
  H      -0.167904      1.201289     -1.070675
  H      -0.961378      3.409631     -0.289449
  H      -3.276213      3.586529      0.666613
  H      -4.669486      1.547689      0.784717
  H      -3.224120     -4.050138     -0.977984
  H      -5.557374     -4.408160     -0.242275
  H      -6.856829     -2.448234      0.635712
  H      -5.751528     -0.239434      0.728759
  N      -3.199979     -2.040314     -0.527763
  N      -1.900153      0.203332     -0.574607
  Mn     -1.354584     -1.630435     -1.302011
  C       0.302431     -1.188081     -2.008084
  C      -0.830558     -3.351006     -1.787819
  C      -0.732606     -1.878170      1.186875
  Br     -2.509177     -1.133059     -3.532867
  O      -1.354913     -1.706325      2.116890
  O       1.310443     -0.952386     -2.496236
  O      -0.470577     -4.378970     -2.137765
28
Coordinates from ORCA-job Mn_byp_Br_CO3_zero_singlet_triplet E -4560.382003702922
  C      -3.152542      0.285443     -0.067198
  C      -1.154615      1.312584     -0.647742
  C      -1.606140      2.544037     -0.213866
  C      -2.888089      2.638063      0.316735
  C      -3.667473      1.497580      0.386842
  C      -3.891416     -0.976471     -0.057179
  C      -3.809658     -3.233261     -0.582666
  C      -5.115224     -3.425105     -0.173676
  C      -5.830873     -2.337228      0.314196
  C      -5.211065     -1.102401      0.370458
  H      -0.170036      1.199588     -1.076113
  H      -0.963279      3.408932     -0.296317
  H      -3.274842      3.586413      0.664612
  H      -4.668539      1.547588      0.787790
  H      -3.226023     -4.049396     -0.981332
  H      -5.559438     -4.407838     -0.243601
  H      -6.856644     -2.449269      0.638704
  H      -5.750165     -0.240350      0.733245
  N      -3.200241     -2.040826     -0.527830
  N      -1.901057      0.201671     -0.574257
  Mn     -1.355291     -1.632262     -1.300681
  C       0.304954     -1.188514     -2.001073
  C      -0.830052     -3.350481     -1.790585
  C      -0.733021     -1.877310      1.186547
  Br     -2.502432     -1.123053     -3.533201
  O      -1.357087     -1.704367      2.115247
  O       1.314133     -0.950867     -2.485693
  O      -0.471413     -4.378423     -2.142485
28
Coordinates from ORCA-job Mn_byp_Br_CO3_zero_singlet_triplet E -4560.381931591794
  C      -3.152611      0.284566     -0.065694
  C      -1.155855      1.310701     -0.650378
  C      -1.607310      2.543081     -0.218539
  C      -2.888225      2.637556      0.314010
  C      -3.667470      1.496895      0.387065
  C      -3.891447     -0.977600     -0.055224
  C      -3.810805     -3.233327     -0.582628
  C      -5.116208     -3.425571     -0.173273
  C      -5.831181     -2.337955      0.316087
  C      -5.210594     -1.103323      0.372992
  H      -0.172056      1.197826     -1.080541
  H      -0.966027      3.408863     -0.303672
  H      -3.274409      3.586470      0.661003
  H      -4.668081      1.547374      0.789064
  H      -3.227173     -4.048782     -0.982914
  H      -5.561435     -4.407754     -0.243914
  H      -6.856748     -2.450395      0.641077
  H      -5.748751     -0.240992      0.736494
  N      -3.200201     -2.041560     -0.527130
  N      -1.901265      0.199665     -0.573059
  Mn     -1.356045     -1.634354     -1.299483
  C       0.308985     -1.188887     -1.992447
  C      -0.831718     -3.349672     -1.796082
  C      -0.730242     -1.877457      1.186711
  Br     -2.497598     -1.109890     -3.532061
  O      -1.356835     -1.703510      2.113590
  O       1.320060     -0.949292     -2.471824
  O      -0.476316     -4.378200     -2.150348
28
Coordinates from ORCA-job Mn_byp_Br_CO3_zero_singlet_triplet E -4560.381767994531
  C      -3.152631      0.283579     -0.064692
  C      -1.156744      1.308927     -0.651007
  C      -1.608711      2.542608     -0.223010
  C      -2.889619      2.637555      0.309230
  C      -3.668221      1.496384      0.384858
  C      -3.891406     -0.978640     -0.053431
  C      -3.811008     -3.233831     -0.580495
  C      -5.116455     -3.426533     -0.171408
  C      -5.831439     -2.338841      0.317766
  C      -5.210265     -1.104295      0.374557
  H      -0.172961      1.195991     -1.081309
  H      -0.969307      3.409492     -0.310367
  H      -3.276087      3.587177      0.653959
  H      -4.669157      1.547542      0.785978
  H      -3.226664     -4.048785     -0.980959
  H      -5.562366     -4.408379     -0.241833
  H      -6.856997     -2.451754      0.642555
  H      -5.747746     -0.241319      0.737550
  N      -3.199729     -2.042454     -0.525284
  N      -1.900579      0.197508     -0.570667
  Mn     -1.356920     -1.636320     -1.298917
  C       0.315433     -1.189199     -1.981579
  C      -0.837655     -3.348195     -1.806543
  C      -0.722096     -1.879590      1.187613
  Br     -2.496688     -1.092540     -3.528676
  O      -1.352050     -1.705146      2.112173
  O       1.329737     -0.948236     -2.452838
  O      -0.489235     -4.378231     -2.164342
28
Coordinates from ORCA-job Mn_byp_Br_CO3_zero_singlet_triplet E -4560.381508262964
  C      -3.152718      0.282889     -0.065294
  C      -1.156544      1.308062     -0.648214
  C      -1.609772      2.542926     -0.224969
  C      -2.892388      2.638277      0.303286
  C      -3.669984      1.496418      0.379580
  C      -3.891293     -0.979138     -0.052925
  C      -3.809462     -3.235115     -0.575760
  C      -5.115217     -3.428027     -0.167716
  C      -5.831376     -2.339677      0.318401
  C      -5.210392     -1.104946      0.373736
  H      -0.171382      1.194804     -1.075508
  H      -0.971539      3.410575     -0.312497
  H      -3.280396      3.588518      0.644521
  H      -4.672310      1.548271      0.777192
  H      -3.223724     -4.050225     -0.973882
  H      -5.560891     -4.410086     -0.236391
  H      -6.857276     -2.452891      0.641922
  H      -5.748073     -0.241100      0.734416
  N      -3.198828     -2.043346     -0.522509
  N      -1.899071      0.196169     -0.567935
  Mn     -1.357808     -1.637226     -1.300282
  C       0.323332     -1.189121     -1.971067
  C      -0.848533     -3.346383     -1.821212
  C      -0.708297     -1.882902      1.189257
  Br     -2.503205     -1.076419     -3.523598
  O      -1.341593     -1.708807      2.111569
  O       1.342017     -0.948211     -2.432091
  O      -0.510841     -4.378811     -2.183151
28
Coordinates from ORCA-job Mn_byp_Br_CO3_zero_singlet_triplet E -4560.381203777230
  C      -3.153012      0.282832     -0.068079
  C      -1.155247      1.308634     -0.643269
  C      -1.610024      2.543812     -0.223095
  C      -2.895481      2.639317      0.298812
  C      -3.672212      1.496964      0.373062
  C      -3.891154     -0.978935     -0.054506
  C      -3.806244     -3.237201     -0.569468
  C      -5.112445     -3.429826     -0.162820
  C      -5.830787     -2.340282      0.317570
  C      -5.211098     -1.105017      0.370107
  H      -0.167655      1.194997     -1.065036
  H      -0.971260      3.411291     -0.307988
  H      -3.285735      3.589723      0.636953
  H      -4.676373      1.549108      0.766062
  H      -3.219051     -4.053361     -0.963046
  H      -5.556731     -4.412749     -0.228407
  H      -6.857372     -2.453321      0.638930
  H      -5.750182     -0.240450      0.726993
  N      -3.197793     -2.044114     -0.519843
  N      -1.897708      0.196484     -0.567031
  Mn     -1.358702     -1.636542     -1.304514
  C       0.330718     -1.188531     -1.963321
  C      -0.862152     -3.344874     -1.836620
  C      -0.692647     -1.884187      1.191117
  Br     -2.516237     -1.068970     -3.519619
  O      -1.328441     -1.710964      2.111715
  O       1.354320     -0.949309     -2.413586
  O      -0.536860     -4.380055     -2.202191
28
Coordinates from ORCA-job Mn_byp_Br_CO3_zero_singlet_triplet E -4560.380929177362
  C      -3.153486      0.283343     -0.071533
  C      -1.154432      1.310327     -0.641057
  C      -1.610322      2.544789     -0.220578
  C      -2.897562      2.640029      0.297465
  C      -3.673818      1.497514      0.369157
  C      -3.890954     -0.978528     -0.056901
  C      -3.802805     -3.239255     -0.564432
  C      -5.109145     -3.431537     -0.158220
  C      -5.829496     -2.340961      0.316875
  C      -5.211697     -1.104931      0.366448
  H      -0.165125      1.196732     -1.058791
  H      -0.969955      3.411414     -0.302464
  H      -3.289376      3.590099      0.634713
  H      -4.678858      1.549178      0.760008
  H      -3.214961     -4.056697     -0.954070
  H      -5.551539     -4.415551     -0.220850
  H      -6.856657     -2.453536      0.636593
  H      -5.752712     -0.240233      0.720067
  N      -3.196973     -2.044603     -0.518585
  N      -1.897720      0.198120     -0.569292
  Mn     -1.359641     -1.634571     -1.310100
  C       0.337133     -1.189234     -1.956594
  C      -0.874273     -3.342804     -1.849552
  C      -0.682514     -1.882009      1.192844
  Br     -2.525795     -1.068883     -3.519660
  O      -1.320623     -1.709852      2.111818
  O       1.365928     -0.953523     -2.396413
  O      -0.560187     -4.380359     -2.218014
28
Coordinates from ORCA-job Mn_byp_Br_CO3_zero_singlet_triplet E -4560.380672123854
  C      -3.153881      0.284116     -0.074780
  C      -1.154731      1.312888     -0.642582
  C      -1.611445      2.546027     -0.219468
  C      -2.898960      2.640380      0.298172
  C      -3.674762      1.497703      0.368095
  C      -3.890471     -0.978351     -0.059213
  C      -3.799693     -3.240968     -0.561311
  C      -5.105756     -3.433216     -0.154199
  C      -5.827449     -2.342020      0.317244
  C      -5.211596     -1.105102      0.364127
  H      -0.164918      1.199936     -1.059132
  H      -0.969480      3.411730     -0.299461
  H      -3.291594      3.589736      0.636477
  H      -4.679624      1.548115      0.759543
  H      -3.211956     -4.059478     -0.948652
  H      -5.546201     -4.418294     -0.214431
  H      -6.854874     -2.454061      0.636396
  H      -5.754538     -0.240776      0.715620
  N      -3.196267     -2.044973     -0.518787
  N      -1.898767      0.200563     -0.573746
  Mn     -1.360763     -1.631696     -1.316706
  C       0.343742     -1.193055     -1.948835
  C      -0.885200     -3.339807     -1.860831
  C      -0.678249     -1.877356      1.194349
  Br     -2.529590     -1.068611     -3.522637
  O      -1.318728     -1.706668      2.111701
  O       1.378731     -0.962815     -2.376810
  O      -0.580544     -4.379466     -2.231262
28
Coordinates from ORCA-job Mn_byp_Br_CO3_zero_singlet_triplet E -4560.380487797800
  C      -3.153824      0.284952     -0.077701
  C      -1.156325      1.316269     -0.648588
  C      -1.613291      2.547548     -0.220296
  C      -2.899227      2.640176      0.301156
  C      -3.674475      1.497217      0.370296
  C      -3.889577     -0.978361     -0.061435
  C      -3.797333     -3.241948     -0.560568
  C      -5.102763     -3.434442     -0.151195
  C      -5.824840     -2.343030      0.318539
  C      -5.210598     -1.105236      0.363170
  H      -0.167545      1.204493     -1.067681
  H      -0.969958      3.412382     -0.299965
  H      -3.291780      3.588339      0.642927
  H      -4.677961      1.545529      0.765430
  H      -3.210551     -4.061287     -0.947510
  H      -5.541373     -4.420467     -0.209769
  H      -6.852196     -2.454303      0.638316
  H      -5.755292     -0.241697      0.713745
  N      -3.195760     -2.045112     -0.520641
  N      -1.900635      0.203628     -0.580582
  Mn     -1.361606     -1.627941     -1.324607
  C       0.349293     -1.198785     -1.941567
  C      -0.893309     -3.336049     -1.869140
  C      -0.681681     -1.872032      1.196950
  Br     -2.528842     -1.069124     -3.527566
  O      -1.323979     -1.703793      2.113151
  O       1.391229     -0.975240     -2.356517
  O      -0.593366     -4.377211     -2.239469
28
Coordinates from ORCA-job Mn_byp_Br_CO3_zero_singlet_triplet E -4560.380696804128
  C      -3.153107      0.284793     -0.078931
  C      -1.158403      1.316906     -0.658269
  C      -1.613511      2.546825     -0.223580
  C      -2.895831      2.638377      0.305914
  C      -3.671497      1.495736      0.375980
  C      -3.889193     -0.978439     -0.062611
  C      -3.798991     -3.241029     -0.563633
  C      -5.103713     -3.433415     -0.151140
  C      -5.824057     -2.342188      0.320602
  C      -5.209513     -1.104314      0.364606
  H      -0.172536      1.205611     -1.084080
  H      -0.968945      3.410642     -0.305388
  H      -3.286247      3.585499      0.653055
  H      -4.672489      1.542492      0.777430
  H      -3.214363     -4.060838     -0.952945
  H      -5.541870     -4.419635     -0.209890
  H      -6.850897     -2.452137      0.642615
  H      -5.754442     -0.241533      0.716531
  N      -3.196917     -2.044770     -0.524007
  N      -1.903001      0.204270     -0.587727
  Mn     -1.361207     -1.626922     -1.330217
  C       0.346122     -1.196253     -1.940941
  C      -0.887462     -3.334761     -1.866725
  C      -0.697980     -1.871615      1.199997
  Br     -2.522828     -1.077597     -3.532473
  O      -1.338203     -1.705483      2.117701
  O       1.390856     -0.971437     -2.349446
  O      -0.577338     -4.374307     -2.233543
28
Coordinates from ORCA-job Mn_byp_Br_CO3_zero_singlet_triplet E -4560.381157105838
  C      -3.152902      0.284313     -0.077837
  C      -1.159414      1.314423     -0.663807
  C      -1.612294      2.544951     -0.227896
  C      -2.892200      2.637223      0.306605
  C      -3.669122      1.495253      0.379000
  C      -3.890002     -0.978869     -0.061563
  C      -3.803128     -3.239459     -0.567761
  C      -5.107146     -3.432276     -0.152466
  C      -5.825036     -2.341761      0.324127
  C      -5.208924     -1.104246      0.368939
  H      -0.175934      1.202543     -1.094758
  H      -0.967947      3.408608     -0.312883
  H      -3.280121      3.584543      0.656040
  H      -4.668764      1.542581      0.783622
  H      -3.219808     -4.058475     -0.961060
  H      -5.546341     -4.417922     -0.212561
  H      -6.850891     -2.451459      0.649368
  H      -5.752346     -0.241811      0.723986
  N      -3.199023     -2.044509     -0.526514
  N      -1.904101      0.202309     -0.588891
  Mn     -1.360924     -1.629224     -1.330338
  C       0.338480     -1.192358     -1.943054
  C      -0.875497     -3.335340     -1.859680
  C      -0.715931     -1.875788      1.197367
  Br     -2.511426     -1.075979     -3.533346
  O      -1.349437     -1.710625      2.119839
  O       1.382095     -0.961023     -2.351880
  O      -0.549481     -4.371144     -2.223716
28
Coordinates from ORCA-job Mn_byp_Br_CO3_zero_singlet_triplet E -4560.381397141692
  C      -3.153432      0.284518     -0.076132
  C      -1.158962      1.312650     -0.660891
  C      -1.611920      2.544982     -0.229929
  C      -2.892982      2.638476      0.301808
  C      -3.670243      1.496505      0.375757
  C      -3.890769     -0.979135     -0.059458
  C      -3.804478     -3.238819     -0.568350
  C      -5.108161     -3.432665     -0.152421
  C      -5.825517     -2.342806      0.326931
  C      -5.208662     -1.105393      0.372402
  H      -0.174969      1.200131     -1.090610
  H      -0.969433      3.409797     -0.316035
  H      -3.280937      3.586882      0.648228
  H      -4.671064      1.545513      0.777339
  H      -3.220170     -4.056325     -0.963566
  H      -5.548483     -4.417730     -0.213137
  H      -6.850701     -2.453878      0.653680
  H      -5.750568     -0.242646      0.729155
  N      -3.199488     -2.044372     -0.525886
  N      -1.902956      0.200818     -0.583914
  Mn     -1.361120     -1.630823     -1.327010
  C       0.336811     -1.195005     -1.942085
  C      -0.873208     -3.335041     -1.859473
  C      -0.719216     -1.881283      1.191679
  Br     -2.505588     -1.061830     -3.529408
  O      -1.347506     -1.716890      2.118025
  O       1.379474     -0.962075     -2.352398
  O      -0.543316     -4.369079     -2.225419
28
Coordinates from ORCA-job Mn_byp_Br_CO3_zero_singlet_triplet E -4560.381412562986
  C      -3.153893      0.285017     -0.075262
  C      -1.158040      1.312546     -0.655130
  C      -1.612371      2.546314     -0.229760
  C      -2.895954      2.640450      0.296345
  C      -3.672592      1.497973      0.370548
  C      -3.890841     -0.978866     -0.058050
  C      -3.803258     -3.238753     -0.566421
  C      -5.106967     -3.433259     -0.151333
  C      -5.825187     -2.343602      0.327895
  C      -5.208515     -1.106146      0.373348
  H      -0.172068      1.199793     -1.080558
  H      -0.971828      3.412546     -0.315020
  H      -3.285545      3.589794      0.638294
  H      -4.675382      1.548257      0.767200
  H      -3.217178     -4.055230     -0.961120
  H      -5.547924     -4.418043     -0.211657
  H      -6.850235     -2.456266      0.654365
  H      -5.749604     -0.242756      0.729978
  N      -3.198616     -2.044033     -0.523835
  N      -1.901099      0.200588     -0.578699
  Mn     -1.360807     -1.630728     -1.323881
  C       0.339701     -1.198887     -1.939381
  C      -0.877533     -3.334125     -1.864150
  C      -0.713510     -1.886643      1.188314
  Br     -2.508335     -1.051788     -3.524548
  O      -1.339919     -1.723348      2.116294
  O       1.382462     -0.968208     -2.350260
  O      -0.552526     -4.368119     -2.234633
28
Coordinates from ORCA-job Mn_byp_Br_CO3_zero_singlet_triplet E -4560.381358439424
  C      -3.153902      0.285424     -0.075811
  C      -1.157660      1.313683     -0.652941
  C      -1.612920      2.547504     -0.228815
  C      -2.897629      2.641365      0.294874
  C      -3.673586      1.498482      0.368450
  C      -3.890408     -0.978377     -0.058281
  C      -3.801635     -3.238908     -0.564785
  C      -5.105406     -3.433357     -0.150272
  C      -5.824445     -2.343517      0.327598
  C      -5.208364     -1.105961      0.372485
  H      -0.170532      1.201145     -1.075926
  H      -0.972904      3.414241     -0.312726
  H      -3.288359      3.590767      0.635345
  H      -4.677073      1.548775      0.763397
  H      -3.214829     -4.055407     -0.958218
  H      -5.546280     -4.418236     -0.209790
  H      -6.849641     -2.456722      0.653374
  H      -5.749528     -0.242271      0.728313
  N      -3.197764     -2.043689     -0.522943
  N      -1.900386      0.201469     -0.578075
  Mn     -1.360143     -1.629640     -1.323686
  C       0.342551     -1.200407     -1.937274
  C      -0.881379     -3.333444     -1.868010
  C      -0.710093     -1.888541      1.188178
  Br     -2.513750     -1.053506     -3.523294
  O      -1.336742     -1.726291      2.116197
  O       1.386291     -0.972365     -2.347011
  O      -0.561049     -4.367738     -2.241470
28
Coordinates from ORCA-job Mn_byp_Br_CO3_zero_singlet_triplet E -4560.381372426787
  C      -3.153656      0.285809     -0.076818
  C      -1.157674      1.315171     -0.653395
  C      -1.613367      2.548453     -0.228270
  C      -2.898139      2.641719      0.295424
  C      -3.673564      1.498580      0.368385
  C      -3.889830     -0.977788     -0.059046
  C      -3.800454     -3.238878     -0.563939
  C      -5.104147     -3.433015     -0.149377
  C      -5.823578     -2.342938      0.327432
  C      -5.208083     -1.105306      0.371629
  H      -0.170156      1.202963     -1.075613
  H      -0.973247      3.415242     -0.311127
  H      -3.289385      3.590797      0.636209
  H      -4.676881      1.548366      0.763817
  H      -3.213670     -4.055764     -0.956471
  H      -5.544769     -4.418070     -0.208141
  H      -6.848883     -2.456196      0.652876
  H      -5.749489     -0.241567      0.726919
  N      -3.197231     -2.043243     -0.522980
  N      -1.900363      0.202690     -0.579823
  Mn     -1.359161     -1.628434     -1.324477
  C       0.344226     -1.200471     -1.935475
  C      -0.882690     -3.332908     -1.870263
  C      -0.711626     -1.889650      1.188342
  Br     -2.518499     -1.061107     -3.523994
  O      -1.338149     -1.728761      2.116656
  O       1.389115     -0.974411     -2.343595
  O      -0.564214     -4.366807     -2.246005
28
Coordinates from ORCA-job Mn_byp_Br_CO3_zero_singlet_triplet E -4560.381466517759
  C      -3.153419      0.286102     -0.077288
  C      -1.157904      1.316105     -0.654920
  C      -1.613661      2.548978     -0.228757
  C      -2.897948      2.641873      0.296113
  C      -3.673141      1.498644      0.369147
  C      -3.889474     -0.977415     -0.059343
  C      -3.800232     -3.238614     -0.564067
  C      -5.103685     -3.432635     -0.148872
  C      -5.822959     -2.342522      0.328110
  C      -5.207719     -1.104861      0.371944
  H      -0.170595      1.204074     -1.077617
  H      -0.973427      3.415714     -0.311584
  H      -3.289147      3.590702      0.637650
  H      -4.675972      1.548034      0.765823
  H      -3.213823     -4.055696     -0.956732
  H      -5.544201     -4.417763     -0.207351
  H      -6.848153     -2.455766      0.653949
  H      -5.749124     -0.241248      0.727477
  N      -3.197157     -2.042864     -0.523470
  N      -1.900567      0.203441     -0.581377
  Mn     -1.358398     -1.627864     -1.324605
  C       0.344673     -1.200569     -1.933819
  C      -0.881433     -3.332486     -1.870731
  C      -0.716708     -1.890730      1.187037
  Br     -2.519687     -1.066355     -3.525042
  O      -1.342187     -1.731113      2.116295
  O       1.390268     -0.975389     -2.340907
  O      -0.561785     -4.365301     -2.248179
28
Coordinates from ORCA-job Mn_byp_Br_CO3_zero_singlet_triplet E -4560.381584906113
  C      -3.153198      0.286428     -0.077239
  C      -1.158259      1.316922     -0.656537
  C      -1.614128      2.549573     -0.229962
  C      -2.897827      2.642191      0.296313
  C      -3.672787      1.498845      0.369954
  C      -3.889168     -0.977177     -0.059102
  C      -3.800321     -3.238227     -0.564530
  C      -5.103433     -3.432394     -0.148439
  C      -5.822333     -2.342400      0.329446
  C      -5.207201     -1.104704      0.373126
  H      -0.171365      1.204990     -1.080140
  H      -0.974009      3.416346     -0.313485
  H      -3.288873      3.590875      0.638429
  H      -4.675120      1.547925      0.767886
  H      -3.214347     -4.055272     -0.957974
  H      -5.543915     -4.417535     -0.206920
  H      -6.847275     -2.455740      0.656078
  H      -5.748469     -0.241298      0.729320
  N      -3.197150     -2.042520     -0.523924
  N      -1.900665      0.204020     -0.582158
  Mn     -1.357790     -1.627492     -1.323775
  C       0.345497     -1.201931     -1.931396
  C      -0.879462     -3.331869     -1.870918
  C      -0.723142     -1.891944      1.184104
  Br     -2.519460     -1.068168     -3.525804
  O      -1.347368     -1.733792      2.114553
  O       1.391750     -0.977941     -2.337642
  O      -0.557747     -4.363233     -2.250384
28
Coordinates from ORCA-job Mn_byp_Br_CO3_zero_singlet_triplet E -4560.381587261661
  C      -3.153130      0.286492     -0.076834
  C      -1.158490      1.317117     -0.656948
  C      -1.614421      2.549799     -0.230576
  C      -2.897889      2.642326      0.296253
  C      -3.672741      1.498899      0.370326
  C      -3.889096     -0.977239     -0.058682
  C      -3.800433     -3.238086     -0.564738
  C      -5.103485     -3.432465     -0.148479
  C      -5.822238     -2.342575      0.329873
  C      -5.207016     -1.104859      0.373700
  H      -0.171877      1.205172     -1.081172
  H      -0.974435      3.416600     -0.314796
  H      -3.288848      3.590989      0.638525
  H      -4.674948      1.547869      0.768583
  H      -3.214583     -4.054999     -0.958696
  H      -5.543927     -4.417598     -0.207213
  H      -6.847100     -2.455917      0.656753
  H      -5.748309     -0.241551      0.730101
  N      -3.197093     -2.042516     -0.523838
  N      -1.900610      0.204073     -0.581815
  Mn     -1.357828     -1.627404     -1.322936
  C       0.346386     -1.203249     -1.930502
  C      -0.878864     -3.331605     -1.870766
  C      -0.724538     -1.891780      1.182732
  Br     -2.519385     -1.066201     -3.525742
  O      -1.349070     -1.734052      2.113124
  O       1.392785     -0.980156     -2.336759
  O      -0.556382     -4.362609     -2.250598
28
Coordinates from ORCA-job Mn_byp_Br_CO3_zero_singlet_triplet E -4560.381499889693
  C      -3.153121      0.286362     -0.076251
  C      -1.158808      1.317017     -0.657104
  C      -1.614570      2.549749     -0.230695
  C      -2.897788      2.642170      0.296750
  C      -3.672633      1.498702      0.371030
  C      -3.889180     -0.977466     -0.058258
  C      -3.800616     -3.238055     -0.564866
  C      -5.103848     -3.432639     -0.148985
  C      -5.822582     -2.342817      0.329439
  C      -5.207099     -1.105096      0.373623
  H      -0.172603      1.205020     -1.082263
  H      -0.974566      3.416450     -0.315669
  H      -3.288522      3.590758      0.639486
  H      -4.674766      1.547530      0.769500
  H      -3.214783     -4.054854     -0.959142
  H      -5.544157     -4.417789     -0.208191
  H      -6.847524     -2.455927      0.656130
  H      -5.748663     -0.241851      0.729800
  N      -3.197033     -2.042730     -0.523452
  N      -1.900631      0.203862     -0.581270
  Mn     -1.358272     -1.627377     -1.322265
  C       0.347300     -1.204263     -1.931028
  C      -0.878660     -3.331685     -1.869841
  C      -0.723058     -1.890004      1.182632
  Br     -2.520032     -1.063406     -3.525618
  O      -1.349296     -1.732119      2.111908
  O       1.393503     -0.982087     -2.337996
  O      -0.555557     -4.362976     -2.248522
28
Coordinates from ORCA-job Mn_byp_Br_CO3_zero_singlet_triplet E -4560.381493748971
  C      -3.153203      0.286218     -0.076224
  C      -1.158959      1.316817     -0.657162
  C      -1.614377      2.549477     -0.230123
  C      -2.897463      2.641836      0.297649
  C      -3.672448      1.498439      0.371604
  C      -3.889367     -0.977547     -0.058400
  C      -3.800721     -3.238112     -0.564846
  C      -5.104162     -3.432656     -0.149401
  C      -5.823006     -2.342788      0.328612
  C      -5.207394     -1.105071      0.372916
  H      -0.172944      1.204809     -1.082783
  H      -0.974132      3.415999     -0.315039
  H      -3.287968      3.590308      0.640970
  H      -4.674529      1.547178      0.770227
  H      -3.214818     -4.054977     -0.958877
  H      -5.544337     -4.417857     -0.208737
  H      -6.848090     -2.455633      0.654941
  H      -5.749220     -0.241813      0.728686
  N      -3.197107     -2.042870     -0.523310
  N      -1.900850      0.203708     -0.581507
  Mn     -1.358598     -1.627333     -1.322656
  C       0.347122     -1.203768     -1.932568
  C      -0.878667     -3.332036     -1.868903
  C      -0.721102     -1.888290      1.183815
  Br     -2.520729     -1.064034     -3.525978
  O      -1.348441     -1.730052      2.112260
  O       1.393061     -0.981726     -2.340174
  O      -0.555116     -4.363750     -2.246110
