28
Coordinates from ORCA-job Mn_byp_Br_CO3_zero_singlet_triplet
  C   -3.15320269537175      0.28621818420621     -0.07622373565507
  C   -1.15895895316480      1.31681667301261     -0.65716247790253
  C   -1.61437698875762      2.54947667158430     -0.23012282447457
  C   -2.89746321778319      2.64183587385220      0.29764944694099
  C   -3.67244812585409      1.49843883914833      0.37160446288989
  C   -3.88936694683370     -0.97754672778620     -0.05840042619155
  C   -3.80072085548008     -3.23811193880080     -0.56484591425818
  C   -5.10416240624143     -3.43265611221090     -0.14940058172949
  C   -5.82300591303178     -2.34278791150370      0.32861244139898
  C   -5.20739435903293     -1.10507063067191      0.37291576528971
  H   -0.17294445098651      1.20480935952468     -1.08278258950312
  H   -0.97413190101546      3.41599918878165     -0.31503901882557
  H   -3.28796758156885      3.59030804312872      0.64097037069222
  H   -4.67452875973508      1.54717800878226      0.77022712198760
  H   -3.21481838407668     -4.05497713223548     -0.95887741387599
  H   -5.54433666967490     -4.41785725945589     -0.20873734788053
  H   -6.84808992213416     -2.45563276002844      0.65494064760793
  H   -5.74922038424828     -0.24181298571033      0.72868619385176
  N   -3.19710673565451     -2.04286983234409     -0.52331042178396
  N   -1.90085034658846      0.20370762222308     -0.58150663811430
  Mn  -1.35859750797807     -1.62733271085786     -1.32265581103283
  C   0.34712203354277     -1.20376828163623     -1.93256825732930
  C   -0.87866689103061     -3.33203613833930     -1.86890327164860
  C   -0.72110177541756     -1.88828971353277      1.18381493021866
  Br  -2.52072854005466     -1.06403430775164     -3.52597817676585
  O   -1.34844067260455     -1.73005172648297      2.11225986812748
  O   1.39306086521384     -0.98172554029084     -2.34017431107106
  O   -0.55511629443562     -4.36374970460462     -2.24611006096268
