21
File written by ORCA
Fe    0.000000    0.000000    0.000000
S     0.000000    0.000000    0.000000
S     0.000000    0.000000    0.000000
S     0.000000    0.000000    0.000000
S     0.000000    0.000000    0.000000
C     0.000000    0.000000    0.000000
H     0.000000    0.000000    0.000000
H     0.000000    0.000000    0.000000
H     0.000000    0.000000    0.000000
C     0.000000    0.000000    0.000000
H     0.000000    0.000000    0.000000
H     0.000000    0.000000    0.000000
H     0.000000    0.000000    0.000000
C     0.000000    0.000000    0.000000
H     0.000000    0.000000    0.000000
H     0.000000    0.000000    0.000000
H     0.000000    0.000000    0.000000
C     0.000000    0.000000    0.000000
H     0.000000    0.000000    0.000000
H     0.000000    0.000000    0.000000
H     0.000000    0.000000    0.000000
