28

Fe        -2.27862        1.14541        0.64270
Ni         0.05383       -0.20859       -0.50090
S         -1.91024       -1.03779        0.15706
S         -1.39281        1.23117       -1.44641
C         -1.84290       -2.12311        1.62580
H         -0.99954       -2.81396        1.48085
C         -0.72045        2.86780       -1.90357
H         -1.02540        3.08371       -2.93832
H          0.37814        2.80323       -1.83812
H         -1.10266        3.62991       -1.21257
C         -3.94028        1.29544        0.39920
O         -5.09876        1.38452        0.20795
C         -2.49563        0.84606        2.49755
N         -2.62119        0.62933        3.64998
C         -2.08259        3.00287        0.95102
N         -1.96545        4.16614        1.10617
S          1.21425       -1.90874        0.37304
S          1.84499        0.78440       -1.38585
C          2.25875       -2.57820       -0.97138
H          2.88393       -1.79167       -1.41928
H          1.64630       -3.02455       -1.77039
H          2.89972       -3.36682       -0.54190
C          3.19415        0.78049       -0.15118
H          2.99966        1.51412        0.64532
H          4.13261        1.05307       -0.66229
H          3.29216       -0.21333        0.31019
H         -1.72082       -1.53165        2.54062
H         -2.79191       -2.67722        1.67142
