28
Coordinates from ORCA-job Ni_Fe_triplet_min E -4822.292014029947
  Fe     -2.272110      1.041593      0.474683
  Ni      0.513723      0.166498     -0.021229
  S      -1.370733     -1.017805      0.031814
  S      -0.818816      1.512803     -1.187211
  C      -1.432798     -2.124100      1.495949
  H      -0.450619     -2.100893      1.988278
  C      -0.355370      3.277265     -1.312799
  H      -0.522011      3.596860     -2.352520
  H       0.713416      3.349363     -1.053829
  H      -0.964632      3.875654     -0.624019
  C      -3.763874      0.926220     -0.302881
  O      -4.794075      0.838467     -0.865748
  C      -3.012939      0.513072      2.134930
  N      -3.472476      0.153038      3.159854
  C      -2.562036      2.856002      0.921753
  N      -2.736287      3.996064      1.168466
  S       1.932997     -1.402821      0.664601
  S       2.242526      1.588495      0.112013
  C       1.426082     -3.013666     -0.060760
  H       1.178658     -2.911253     -1.126929
  H       0.562838     -3.464505      0.451078
  H       2.283769     -3.700508      0.035042
  C       3.402112      1.053530     -1.191730
  H       4.342586      1.618722     -1.074991
  H       3.003479      1.246369     -2.201473
  H       3.607195     -0.023191     -1.081567
  H      -2.208480     -1.765761      2.184426
  H      -1.662875     -3.143461      1.151476
28
Coordinates from ORCA-job Ni_Fe_triplet_min E -4822.294366443033
  Fe     -2.298699      1.041923      0.476556
  Ni      0.490722      0.144822      0.010613
  S      -1.398501     -1.032273      0.081651
  S      -0.820926      1.493738     -1.180528
  C      -1.466437     -2.116003      1.564214
  H      -0.495160     -2.070283      2.074474
  C      -0.303673      3.241248     -1.308398
  H      -0.438365      3.554738     -2.353957
  H       0.759806      3.293231     -1.022061
  H      -0.918696      3.856536     -0.640321
  C      -3.791585      0.919955     -0.322467
  O      -4.820824      0.835933     -0.891826
  C      -3.041399      0.559032      2.154528
  N      -3.502474      0.221622      3.187441
  C      -2.570650      2.865397      0.909903
  N      -2.733318      4.010800      1.143574
  S       1.902302     -1.426545      0.703820
  S       2.227180      1.559861      0.150453
  C       1.501139     -3.006512     -0.143884
  H       1.354854     -2.851926     -1.221787
  H       0.600750     -3.493318      0.259190
  H       2.357962     -3.686151     -0.000584
  C       3.355529      1.056312     -1.192689
  H       4.296652      1.621716     -1.086840
  H       2.931045      1.270394     -2.187398
  H       3.567095     -0.021463     -1.112856
  H      -2.258785     -1.756020      2.231554
  H      -1.676295     -3.144717      1.234305
28
Coordinates from ORCA-job Ni_Fe_triplet_min E -4822.299090284169
  Fe     -2.326519      1.033781      0.467026
  Ni      0.484593      0.158959      0.004038
  S      -1.391569     -1.042381      0.081215
  S      -0.829910      1.503346     -1.204672
  C      -1.419606     -2.152427      1.548880
  H      -0.448302     -2.100608      2.055353
  C      -0.242483      3.224889     -1.321024
  H      -0.371175      3.545008     -2.364206
  H       0.821005      3.255624     -1.028672
  H      -0.851755      3.844117     -0.651292
  C      -3.838854      0.889615     -0.373264
  O      -4.874301      0.819632     -0.942662
  C      -3.030660      0.573952      2.183117
  N      -3.467952      0.232697      3.227078
  C      -2.572517      2.863062      0.931423
  N      -2.718678      4.011554      1.169448
  S       1.902994     -1.408764      0.676704
  S       2.206274      1.599508      0.156839
  C       1.446487     -2.998081     -0.117702
  H       1.277082     -2.859984     -1.193526
  H       0.538260     -3.443027      0.319387
  H       2.284993     -3.701027      0.018911
  C       3.332908      1.095412     -1.185946
  H       4.268149      1.670125     -1.088754
  H       2.900007      1.298555     -2.179020
  H       3.557946      0.020919     -1.102014
  H      -2.212858     -1.812053      2.223737
  H      -1.614307     -3.180355      1.206280
28
Coordinates from ORCA-job Ni_Fe_triplet_min E -4822.301462696396
  Fe     -2.345185      1.021520      0.455911
  Ni      0.482760      0.147596      0.012066
  S      -1.388976     -1.064330      0.097912
  S      -0.821517      1.496464     -1.222772
  C      -1.402397     -2.152644      1.580169
  H      -0.424597     -2.104834      2.076905
  C      -0.219416      3.214088     -1.321707
  H      -0.330111      3.536034     -2.367610
  H       0.834174      3.249210     -1.002925
  H      -0.848024      3.830452     -0.664521
  C      -3.868758      0.856072     -0.436098
  O      -4.899534      0.801014     -1.009521
  C      -3.024663      0.590622      2.203045
  N      -3.446055      0.250305      3.251809
  C      -2.557143      2.860257      0.935296
  N      -2.680874      4.010964      1.167001
  S       1.897508     -1.421794      0.673041
  S       2.207296      1.588770      0.194402
  C       1.431142     -2.997082     -0.140982
  H       1.283368     -2.846319     -1.219253
  H       0.507755     -3.427681      0.275886
  H       2.254563     -3.715309      0.004294
  C       3.313058      1.117438     -1.176549
  H       4.253082      1.685951     -1.078615
  H       2.865075      1.348384     -2.157097
  H       3.535577      0.040045     -1.125562
  H      -2.186086     -1.791161      2.257641
  H      -1.612771     -3.181982      1.254516
28
Coordinates from ORCA-job Ni_Fe_triplet_min E -4822.302629444185
  Fe     -2.350032      1.009111      0.442776
  Ni      0.486731      0.137379      0.001394
  S      -1.380239     -1.083027      0.100772
  S      -0.812767      1.498251     -1.240199
  C      -1.381133     -2.134986      1.606734
  H      -0.395218     -2.085557      2.088425
  C      -0.229185      3.226270     -1.306560
  H      -0.310842      3.555356     -2.353332
  H       0.811976      3.269888     -0.952379
  H      -0.882431      3.834805     -0.666211
  C      -3.875969      0.825231     -0.488381
  O      -4.899156      0.776046     -1.066566
  C      -3.014524      0.585475      2.205007
  N      -3.427132      0.240927      3.254358
  C      -2.542769      2.853278      0.928778
  N      -2.654516      4.004949      1.155606
  S       1.907907     -1.432988      0.635740
  S       2.219374      1.567791      0.218992
  C       1.399917     -3.009443     -0.153642
  H       1.252601     -2.874222     -1.234366
  H       0.470217     -3.414197      0.272049
  H       2.208562     -3.742735      0.001510
  C       3.314764      1.129021     -1.171001
  H       4.254121      1.699403     -1.072800
  H       2.856153      1.375169     -2.143096
  H       3.541778      0.051556     -1.141146
  H      -2.151978     -1.752087      2.287638
  H      -1.606958     -3.168614      1.306580
28
Coordinates from ORCA-job Ni_Fe_triplet_min E -4822.303288320657
  Fe     -2.348192      0.999624      0.429871
  Ni      0.489836      0.117840     -0.003657
  S      -1.376516     -1.102472      0.106105
  S      -0.794812      1.496453     -1.249427
  C      -1.365703     -2.112253      1.639370
  H      -0.366973     -2.071068      2.095423
  C      -0.223902      3.232134     -1.274767
  H      -0.260377      3.571143     -2.320970
  H       0.802506      3.271093     -0.878257
  H      -0.898573      3.838744     -0.656207
  C      -3.864332      0.801677     -0.542760
  O      -4.876134      0.753515     -1.134458
  C      -3.016888      0.573490      2.193138
  N      -3.434153      0.225894      3.239066
  C      -2.528609      2.848613      0.910359
  N      -2.633880      4.001711      1.130731
  S       1.916710     -1.455137      0.604871
  S       2.237477      1.524907      0.251814
  C       1.374416     -3.037466     -0.153861
  H       1.213205     -2.921148     -1.235044
  H       0.448947     -3.428568      0.291734
  H       2.179412     -3.775182      0.002953
  C       3.295718      1.163782     -1.188677
  H       4.241820      1.721638     -1.082062
  H       2.815536      1.468031     -2.133340
  H       3.514105      0.084533     -1.225674
  H      -2.112541     -1.701078      2.330037
  H      -1.618853     -3.148398      1.370368
28
Coordinates from ORCA-job Ni_Fe_triplet_min E -4822.303762334825
  Fe     -2.358478      1.000822      0.424626
  Ni      0.476727      0.115870     -0.020478
  S      -1.384345     -1.108567      0.112410
  S      -0.802297      1.510715     -1.256712
  C      -1.339411     -2.077380      1.671412
  H      -0.324141     -2.039809      2.090025
  C      -0.238021      3.250467     -1.241942
  H      -0.216558      3.596452     -2.286344
  H       0.769702      3.278283     -0.797129
  H      -0.933352      3.860861     -0.652429
  C      -3.860153      0.782238     -0.582538
  O      -4.861388      0.724944     -1.188156
  C      -3.030237      0.562061      2.183458
  N      -3.452900      0.211765      3.226340
  C      -2.540868      2.851765      0.896170
  N      -2.650777      4.005095      1.113374
  S       1.927935     -1.450996      0.541499
  S       2.236315      1.503819      0.251800
  C       1.365793     -3.046286     -0.180403
  H       1.159406     -2.946467     -1.255545
  H       0.466062     -3.446405      0.307177
  H       2.187021     -3.771388     -0.047726
  C       3.299456      1.139695     -1.184164
  H       4.243236      1.701454     -1.079646
  H       2.820743      1.434542     -2.132516
  H       3.521196      0.060656     -1.211475
  H      -2.056795     -1.645578      2.379582
  H      -1.614623     -3.116578      1.436008
28
Coordinates from ORCA-job Ni_Fe_triplet_min E -4822.304348708653
  Fe     -2.346372      1.000217      0.417742
  Ni      0.479143      0.089887     -0.016317
  S      -1.387462     -1.122682      0.117427
  S      -0.772577      1.509637     -1.249611
  C      -1.319853     -2.066626      1.692064
  H      -0.292372     -2.037894      2.080169
  C      -0.193587      3.244881     -1.199010
  H      -0.118378      3.597353     -2.238809
  H       0.799027      3.248178     -0.718727
  H      -0.895819      3.866496     -0.631613
  C      -3.817146      0.772285     -0.636663
  O      -4.800463      0.706812     -1.270014
  C      -3.049828      0.545688      2.156420
  N      -3.496953      0.197489      3.190175
  C      -2.532078      2.851677      0.876222
  N      -2.648516      4.004773      1.093216
  S       1.933835     -1.485670      0.512099
  S       2.256517      1.446882      0.282781
  C       1.330689     -3.096879     -0.143541
  H       1.072263     -3.026343     -1.209614
  H       0.456946     -3.486263      0.398082
  H       2.159110     -3.817542     -0.031205
  C       3.244877      1.217774     -1.232204
  H       4.196483      1.764880     -1.122697
  H       2.722530      1.600684     -2.124284
  H       3.456030      0.144976     -1.369233
  H      -2.013119     -1.622617      2.415527
  H      -1.613677     -3.106002      1.478297
28
Coordinates from ORCA-job Ni_Fe_triplet_min E -4822.305130544811
  Fe     -2.345034      1.015129      0.427024
  Ni      0.463060      0.078539     -0.010905
  S      -1.406947     -1.121094      0.139595
  S      -0.765160      1.522479     -1.229064
  C      -1.289467     -2.043038      1.727461
  H      -0.247202     -2.015663      2.072110
  C      -0.154773      3.245634     -1.154122
  H      -0.018069      3.593822     -2.189301
  H       0.820202      3.221851     -0.637576
  H      -0.862148      3.886378     -0.616105
  C      -3.765123      0.761289     -0.680108
  O      -4.722456      0.666487     -1.351584
  C      -3.092694      0.541602      2.132031
  N      -3.574774      0.206338      3.155041
  C      -2.558813      2.863232      0.860362
  N      -2.701555      4.013546      1.079693
  S       1.936789     -1.502123      0.452372
  S       2.252788      1.413348      0.286337
  C       1.318699     -3.130457     -0.150707
  H       0.978535     -3.074087     -1.194231
  H       0.498418     -3.538083      0.458923
  H       2.171415     -3.828763     -0.096008
  C       3.201943      1.238860     -1.259718
  H       4.155786      1.782062     -1.153582
  H       2.657479      1.652076     -2.124547
  H       3.408712      0.171403     -1.438254
  H      -1.955301     -1.594284      2.472922
  H      -1.595058     -3.084432      1.538620
28
Coordinates from ORCA-job Ni_Fe_triplet_min E -4822.305639642871
  Fe     -2.333419      1.020571      0.431918
  Ni      0.462394      0.066892     -0.004609
  S      -1.408343     -1.125469      0.160093
  S      -0.746744      1.530658     -1.210994
  C      -1.267584     -2.032441      1.756680
  H      -0.222125     -1.997791      2.089108
  C      -0.111540      3.242904     -1.123112
  H       0.073784      3.580292     -2.154352
  H       0.841164      3.215699     -0.566636
  H      -0.837769      3.893438     -0.621762
  C      -3.708345      0.742205     -0.719614
  O      -4.640721      0.621272     -1.422357
  C      -3.117854      0.542360      2.112127
  N      -3.626640      0.220542      3.126606
  C      -2.574645      2.864522      0.850475
  N      -2.739697      4.011452      1.072347
  S       1.941238     -1.525596      0.403874
  S       2.264455      1.379399      0.299137
  C       1.292396     -3.159628     -0.150062
  H       0.868962     -3.105036     -1.162628
  H       0.526097     -3.572596      0.523258
  H       2.152415     -3.850259     -0.162838
  C       3.160127      1.275228     -1.283854
  H       4.115503      1.816840     -1.185352
  H       2.584693      1.723314     -2.110656
  H       3.364273      0.217838     -1.516398
  H      -1.929819     -1.578065      2.502868
  H      -1.573003     -3.076495      1.583411
28
Coordinates from ORCA-job Ni_Fe_triplet_min E -4822.306113833261
  Fe     -2.313739      1.020451      0.437303
  Ni      0.474049      0.058269      0.007676
  S      -1.395020     -1.131006      0.187953
  S      -0.721920      1.534782     -1.190794
  C      -1.250750     -2.023337      1.793569
  H      -0.211180     -1.969486      2.140057
  C      -0.071459      3.239239     -1.094548
  H       0.155628      3.563715     -2.121491
  H       0.852463      3.229953     -0.492611
  H      -0.829935      3.888874     -0.638960
  C      -3.641562      0.709296     -0.755337
  O      -4.546166      0.555840     -1.487234
  C      -3.133360      0.550866      2.098190
  N      -3.664396      0.244783      3.105904
  C      -2.589618      2.860556      0.839127
  N      -2.777900      4.004255      1.057995
  S       1.945168     -1.554515      0.366051
  S       2.283212      1.358312      0.311367
  C       1.258834     -3.179783     -0.165386
  H       0.770107     -3.107716     -1.146916
  H       0.533212     -3.592988      0.551526
  H       2.110448     -3.876029     -0.241463
  C       3.123736      1.306730     -1.303491
  H       4.080990      1.847708     -1.219483
  H       2.517896      1.779476     -2.094139
  H       3.323965      0.259387     -1.580243
  H      -1.930789     -1.563210      2.521229
  H      -1.542664     -3.072371      1.630829
28
Coordinates from ORCA-job Ni_Fe_triplet_min E -4822.306342683704
  Fe     -2.301010      1.015055      0.436004
  Ni      0.485944      0.056981      0.010154
  S      -1.377823     -1.136649      0.204639
  S      -0.707043      1.540415     -1.183167
  C      -1.239174     -2.013439      1.819017
  H      -0.206978     -1.941509      2.183909
  C      -0.060661      3.245926     -1.072949
  H       0.192296      3.568702     -2.094227
  H       0.840146      3.254201     -0.438681
  H      -0.844408      3.887287     -0.648392
  C      -3.602094      0.677300     -0.781152
  O      -4.489004      0.501329     -1.527906
  C      -3.135811      0.557085      2.093020
  N      -3.673206      0.256877      3.098886
  C      -2.600515      2.853871      0.829507
  N      -2.800736      3.996471      1.042162
  S       1.949656     -1.569549      0.333755
  S       2.300234      1.349603      0.317199
  C       1.230257     -3.185024     -0.181246
  H       0.696443     -3.098146     -1.137641
  H       0.534844     -3.597024      0.565054
  H       2.070307     -3.888790     -0.303428
  C       3.115944      1.312748     -1.310932
  H       4.076361      1.850067     -1.236704
  H       2.498561      1.795370     -2.086354
  H       3.310068      0.268929     -1.604568
  H      -1.937194     -1.548754      2.526732
  H      -1.516156     -3.067281      1.663989
28
Coordinates from ORCA-job Ni_Fe_triplet_min E -4822.306452248701
  Fe     -2.293082      1.010282      0.433166
  Ni      0.495557      0.057297      0.013638
  S      -1.365924     -1.138215      0.215060
  S      -0.697809      1.541958     -1.179669
  C      -1.237445     -2.006147      1.834290
  H      -0.210860     -1.924700      2.213116
  C      -0.061231      3.251478     -1.058127
  H       0.193911      3.581711     -2.076409
  H       0.833767      3.266339     -0.416956
  H      -0.853820      3.884164     -0.636961
  C      -3.583237      0.655917     -0.792207
  O      -4.461297      0.464784     -1.544783
  C      -3.135408      0.565323      2.092291
  N      -3.672524      0.266623      3.098619
  C      -2.607489      2.849840      0.819552
  N      -2.812017      3.993137      1.023432
  S       1.951124     -1.578586      0.323999
  S       2.308629      1.354256      0.317486
  C       1.216157     -3.185166     -0.195766
  H       0.664937     -3.085303     -1.140807
  H       0.533004     -3.601475      0.559390
  H       2.049634     -3.892643     -0.341188
  C       3.118072      1.310447     -1.314055
  H       4.078260      1.849656     -1.248208
  H       2.496282      1.787590     -2.089196
  H       3.312946      0.265678     -1.603932
  H      -1.946736     -1.539394      2.529178
  H      -1.504150     -3.062803      1.681726
28
Coordinates from ORCA-job Ni_Fe_triplet_min E -4822.306540522203
  Fe     -2.287312      1.006020      0.427522
  Ni      0.500565      0.054015      0.013330
  S      -1.359034     -1.140844      0.224963
  S      -0.688805      1.545494     -1.177954
  C      -1.234298     -1.995534      1.850769
  H      -0.209945     -1.907126      2.234425
  C      -0.060495      3.258236     -1.039687
  H       0.202302      3.597622     -2.053058
  H       0.829724      3.269078     -0.391951
  H      -0.855838      3.887499     -0.619568
  C      -3.567004      0.635481     -0.806264
  O      -4.435471      0.428196     -1.565037
  C      -3.138355      0.574548      2.089101
  N      -3.674631      0.275761      3.095782
  C      -2.615124      2.847238      0.805708
  N      -2.821945      3.991885      0.999115
  S       1.951793     -1.588271      0.305275
  S       2.319424      1.344547      0.320650
  C       1.204386     -3.191399     -0.207501
  H       0.636507     -3.088389     -1.142033
  H       0.535283     -3.610309      0.558814
  H       2.033981     -3.900080     -0.370055
  C       3.115159      1.313075     -1.318324
  H       4.078514      1.847350     -1.257807
  H       2.488557      1.799536     -2.083727
  H       3.302369      0.270005     -1.619266
  H      -1.947863     -1.526622      2.539402
  H      -1.493194     -3.054964      1.704055
28
Coordinates from ORCA-job Ni_Fe_triplet_min E -4822.306618032042
  Fe     -2.282393      1.003809      0.423288
  Ni      0.504551      0.053301      0.013632
  S      -1.355375     -1.137819      0.231603
  S      -0.682951      1.549527     -1.174829
  C      -1.231999     -1.987930      1.859351
  H      -0.208311     -1.896145      2.244166
  C      -0.059585      3.263694     -1.024882
  H       0.194786      3.614657     -2.036525
  H       0.838465      3.264365     -0.387399
  H      -0.848268      3.890029     -0.589019
  C      -3.557008      0.621549     -0.809777
  O      -4.418145      0.396766     -1.572420
  C      -3.142438      0.583363      2.086524
  N      -3.676299      0.281764      3.093651
  C      -2.626368      2.845986      0.793689
  N      -2.836040      3.991803      0.976887
  S       1.949374     -1.595892      0.294625
  S       2.324068      1.346458      0.318800
  C       1.194838     -3.196495     -0.215249
  H       0.625249     -3.093934     -1.148668
  H       0.526907     -3.613587      0.553489
  H       2.021940     -3.908121     -0.378368
  C       3.116208      1.314673     -1.322220
  H       4.079954      1.848677     -1.265903
  H       2.487634      1.800570     -2.086361
  H       3.301659      0.271119     -1.622404
  H      -1.947037     -1.521005      2.547602
  H      -1.484166     -3.049133      1.713397
28
Coordinates from ORCA-job Ni_Fe_triplet_min E -4822.306676251351
  Fe     -2.281473      1.003525      0.419333
  Ni      0.501474      0.049382      0.011034
  S      -1.358801     -1.136191      0.237908
  S      -0.679359      1.554932     -1.172828
  C      -1.225374     -1.977671      1.869336
  H      -0.196895     -1.889773      2.242167
  C      -0.051360      3.266250     -1.012163
  H       0.203389      3.623105     -2.021748
  H       0.851324      3.252409     -0.380291
  H      -0.832049      3.895879     -0.567348
  C      -3.549198      0.611649     -0.817014
  O      -4.401594      0.371171     -1.585065
  C      -3.151108      0.587263      2.081567
  N      -3.684407      0.281848      3.087790
  C      -2.638534      2.846445      0.783045
  N      -2.851293      3.992790      0.959101
  S       1.945562     -1.602234      0.275952
  S       2.329001      1.332526      0.321791
  C       1.187772     -3.205460     -0.220234
  H       0.611677     -3.109907     -1.150512
  H       0.526208     -3.620229      0.555354
  H       2.015307     -3.916286     -0.384523
  C       3.109860      1.321898     -1.324853
  H       4.076265      1.850808     -1.267918
  H       2.478030      1.821469     -2.077486
  H       3.288011      0.281738     -1.640664
  H      -1.930947     -1.506459      2.564387
  H      -1.482239     -3.038829      1.730562
28
Coordinates from ORCA-job Ni_Fe_triplet_min E -4822.306716161500
  Fe     -2.282355      1.004175      0.418043
  Ni      0.497988      0.048694      0.008929
  S      -1.363150     -1.132251      0.240617
  S      -0.680011      1.558878     -1.171719
  C      -1.217962     -1.971719      1.872558
  H      -0.183646     -1.893167      2.230898
  C      -0.045067      3.266461     -1.008041
  H       0.203205      3.626039     -2.018293
  H       0.863908      3.244067     -0.384791
  H      -0.819246      3.897602     -0.553843
  C      -3.548428      0.608240     -0.817001
  O      -4.395681      0.356932     -1.587739
  C      -3.157055      0.585984      2.079210
  N      -3.688777      0.276032      3.084817
  C      -2.649876      2.847059      0.778111
  N      -2.866201      3.993178      0.950979
  S       1.940776     -1.604296      0.267141
  S       2.328630      1.328966      0.322470
  C       1.181912     -3.208661     -0.222662
  H       0.606705     -3.117283     -1.154107
  H       0.518971     -3.619473      0.553918
  H       2.009577     -3.920121     -0.382635
  C       3.109929      1.324800     -1.323814
  H       4.076853      1.852233     -1.263413
  H       2.478949      1.828767     -2.074246
  H       3.286834      0.285844     -1.644084
  H      -1.910791     -1.494252      2.576225
  H      -1.486740     -3.030676      1.739150
28
Coordinates from ORCA-job Ni_Fe_triplet_min E -4822.306745841410
  Fe     -2.284017      1.004189      0.417467
  Ni      0.494139      0.047655      0.006706
  S      -1.367480     -1.129821      0.243719
  S      -0.681573      1.561317     -1.172147
  C      -1.209648     -1.965895      1.877059
  H      -0.168636     -1.901210      2.218128
  C      -0.040395      3.265712     -1.006465
  H       0.208207      3.624630     -2.016853
  H       0.868204      3.240978     -0.382676
  H      -0.814432      3.897888     -0.552952
  C      -3.549469      0.605238     -0.817492
  O      -4.392392      0.346077     -1.590345
  C      -3.160793      0.582331      2.078351
  N      -3.690742      0.269285      3.083834
  C      -2.659049      2.847338      0.774027
  N      -2.878819      3.992995      0.945120
  S       1.936594     -1.605315      0.260286
  S       2.328270      1.323904      0.324527
  C       1.176510     -3.209572     -0.227478
  H       0.604135     -3.119633     -1.160956
  H       0.509867     -3.616534      0.547905
  H       2.003710     -3.922373     -0.383026
  C       3.111523      1.325907     -1.320654
  H       4.078551      1.852520     -1.255534
  H       2.481892      1.833655     -2.069676
  H       3.288623      0.288362     -1.645334
  H      -1.885742     -1.476748      2.588990
  H      -1.497785     -3.020828      1.752146
28
Coordinates from ORCA-job Ni_Fe_triplet_min E -4822.306768850550
  Fe     -2.284709      1.002873      0.417507
  Ni      0.492264      0.046550      0.005473
  S      -1.369894     -1.128476      0.247609
  S      -0.682847      1.561426     -1.173382
  C      -1.202873     -1.961322      1.882654
  H      -0.156096     -1.912288      2.208120
  C      -0.038951      3.264536     -1.006271
  H       0.213135      3.621905     -2.016301
  H       0.865362      3.242969     -0.376702
  H      -0.817453      3.895999     -0.558918
  C      -3.551227      0.601408     -0.816563
  O      -4.391035      0.336293     -1.590523
  C      -3.160733      0.578897      2.079698
  N      -3.688230      0.265315      3.086218
  C      -2.665667      2.846673      0.769370
  N      -2.888772      3.991900      0.938615
  S       1.933625     -1.606482      0.257925
  S       2.327598      1.322161      0.326466
  C       1.171374     -3.208042     -0.235580
  H       0.610149     -3.116492     -1.175688
  H       0.493052     -3.609198      0.532577
  H       1.996578     -3.925288     -0.380529
  C       3.115366      1.325441     -1.316468
  H       4.081987      1.852255     -1.247004
  H       2.487903      1.833907     -2.066780
  H       3.294214      0.288478     -1.642146
  H      -1.861980     -1.458296      2.600752
  H      -1.512890     -3.011054      1.766549
28
Coordinates from ORCA-job Ni_Fe_triplet_min E -4822.306786546733
  Fe     -2.284237      1.000415      0.417629
  Ni      0.491868      0.044498      0.004791
  S      -1.370680     -1.128997      0.252449
  S      -0.683080      1.559779     -1.175020
  C      -1.198375     -1.957879      1.889801
  H      -0.147115     -1.923958      2.202452
  C      -0.039562      3.263213     -1.005675
  H       0.219541      3.619208     -2.014376
  H       0.858135      3.246515     -0.367251
  H      -0.824259      3.893535     -0.567356
  C      -3.551932      0.596148     -0.815895
  O      -4.389272      0.326538     -1.590636
  C      -3.157743      0.577683      2.082402
  N      -3.682812      0.267040      3.091057
  C      -2.669538      2.845219      0.763109
  N      -2.895641      3.990190      0.929900
  S       1.932221     -1.608583      0.256652
  S       2.327546      1.320219      0.329099
  C       1.166918     -3.206139     -0.245966
  H       0.623324     -3.112515     -1.196141
  H       0.471520     -3.599247      0.510838
  H       1.988848     -3.930280     -0.374515
  C       3.118433      1.325652     -1.312311
  H       4.084339      1.853431     -1.239984
  H       2.492049      1.834184     -2.063435
  H       3.299460      0.289379     -1.639114
  H      -1.841751     -1.440992      2.612134
  H      -1.528953     -3.002206      1.782040
28
Coordinates from ORCA-job Ni_Fe_triplet_min E -4822.306803638328
  Fe     -2.283100      0.997084      0.417988
  Ni      0.492161      0.041880      0.004407
  S      -1.370775     -1.130619      0.258149
  S      -0.683199      1.556739     -1.177021
  C      -1.195291     -1.955637      1.897765
  H      -0.139765     -1.939265      2.197431
  C      -0.042081      3.261431     -1.005313
  H       0.225733      3.616380     -2.012088
  H       0.848610      3.249494     -0.357609
  H      -0.832791      3.890741     -0.576409
  C      -3.552328      0.589551     -0.814461
  O      -4.387666      0.316014     -1.589737
  C      -3.152089      0.579223      2.086775
  N      -3.674309      0.275264      3.098936
  C      -2.672497      2.843057      0.754794
  N      -2.901923      3.987839      0.918288
  S       1.931570     -1.611284      0.256091
  S       2.326560      1.319535      0.332560
  C       1.162993     -3.203669     -0.258808
  H       0.643914     -3.108113     -1.222369
  H       0.445292     -3.586439      0.482068
  H       1.980298     -3.936780     -0.364793
  C       3.121330      1.326488     -1.306973
  H       4.086629      1.855095     -1.232230
  H       2.496386      1.834739     -2.059438
  H       3.304288      0.290659     -1.634239
  H      -1.820830     -1.423817      2.624683
  H      -1.547867     -2.993540      1.798232
28
Coordinates from ORCA-job Ni_Fe_triplet_min E -4822.306821597111
  Fe     -2.281716      0.993371      0.418364
  Ni      0.492237      0.038759      0.003649
  S      -1.370957     -1.133258      0.263878
  S      -0.683589      1.553007     -1.179490
  C      -1.192929     -1.954700      1.905327
  H      -0.133081     -1.959283      2.190397
  C      -0.045450      3.259050     -1.005792
  H       0.232824      3.612622     -2.010225
  H       0.838590      3.250106     -0.349213
  H      -0.840761      3.888617     -0.586075
  C      -3.552178      0.582081     -0.812925
  O      -4.385726      0.305231     -1.588840
  C      -3.144299      0.583809      2.092294
  N      -3.663288      0.290170      3.109173
  C      -2.675322      2.840346      0.744766
  N      -2.908564      3.984904      0.904464
  S       1.931082     -1.614566      0.254176
  S       2.324183      1.318929      0.337749
  C       1.159131     -3.201676     -0.272341
  H       0.663064     -3.104382     -1.247785
  H       0.421450     -3.575026      0.453287
  H       1.971384     -3.943224     -0.357763
  C       3.123388      1.329074     -1.299612
  H       4.087786      1.859019     -1.222448
  H       2.499724      1.837015     -2.053340
  H       3.308726      0.293881     -1.627627
  H      -1.796995     -1.406926      2.638308
  H      -1.569462     -2.984903      1.814324
28
Coordinates from ORCA-job Ni_Fe_triplet_min E -4822.306842303515
  Fe     -2.280451      0.989675      0.418703
  Ni      0.491425      0.035398      0.002223
  S      -1.371958     -1.136533      0.268936
  S      -0.684855      1.548717     -1.182718
  C      -1.191053     -1.955026      1.911397
  H      -0.126949     -1.984417      2.179565
  C      -0.049104      3.255592     -1.008567
  H       0.240192      3.606763     -2.010771
  H       0.829606      3.247268     -0.344673
  H      -0.846812      3.887242     -0.596947
  C      -3.551956      0.574289     -0.810916
  O      -4.384055      0.294931     -1.587543
  C      -3.134228      0.591703      2.099012
  N      -3.649055      0.311681      3.121859
  C      -2.678903      2.837177      0.733490
  N      -2.916570      3.981402      0.889055
  S       1.930025     -1.618353      0.250448
  S       2.319122      1.319145      0.345343
  C       1.155345     -3.200722     -0.285813
  H       0.673410     -3.100623     -1.268085
  H       0.405832     -3.569516      0.429782
  H       1.963849     -3.947701     -0.360307
  C       3.124896      1.333898     -1.288772
  H       4.088542      1.864683     -1.207885
  H       2.503587      1.842496     -2.044027
  H       3.312336      0.299480     -1.618041
  H      -1.769230     -1.390584      2.652389
  H      -1.593738     -2.976017      1.829539
28
Coordinates from ORCA-job Ni_Fe_triplet_min E -4822.306862957240
  Fe     -2.280139      0.986855      0.419116
  Ni      0.488711      0.032486     -0.000126
  S      -1.374628     -1.139609      0.272561
  S      -0.687920      1.544499     -1.186815
  C      -1.189159     -1.955731      1.915124
  H      -0.121546     -2.009346      2.165963
  C      -0.052265      3.251032     -1.015156
  H       0.245489      3.598242     -2.016319
  H       0.823787      3.241108     -0.347248
  H      -0.849598      3.886553     -0.609064
  C      -3.553253      0.567850     -0.807480
  O      -4.384846      0.287291     -1.584396
  C      -3.122828      0.601535      2.106745
  N      -3.631875      0.335337      3.136165
  C      -2.683898      2.834186      0.723349
  N      -2.925857      3.978029      0.874986
  S       1.927342     -1.621945      0.244919
  S       2.311178      1.319665      0.355280
  C       1.152219     -3.201031     -0.298811
  H       0.675255     -3.097711     -1.283216
  H       0.398651     -3.570418      0.412316
  H       1.959414     -3.949673     -0.371440
  C       3.126700      1.339814     -1.273986
  H       4.089262      1.871629     -1.187188
  H       2.509051      1.849304     -2.031708
  H       3.317053      0.306303     -1.604331
  H      -1.740946     -1.376699      2.664856
  H      -1.616101     -2.967506      1.842583
28
Coordinates from ORCA-job Ni_Fe_triplet_min E -4822.306882305847
  Fe     -2.280868      0.985207      0.419648
  Ni      0.484097      0.030165     -0.003212
  S      -1.379020     -1.142011      0.274673
  S      -0.692701      1.540277     -1.191888
  C      -1.186973     -1.955693      1.916973
  H      -0.116869     -2.029124      2.152243
  C      -0.054738      3.245501     -1.025235
  H       0.247190      3.587722     -2.026899
  H       0.820903      3.233520     -0.356239
  H      -0.850141      3.885394     -0.622226
  C      -3.556718      0.563597     -0.802328
  O      -4.389066      0.283369     -1.578739
  C      -3.110707      0.610930      2.115172
  N      -3.612017      0.355468      3.151075
  C      -2.689798      2.831873      0.715780
  N      -2.935032      3.975472      0.863764
  S       1.923049     -1.624918      0.238380
  S       2.300836      1.320538      0.366308
  C       1.150041     -3.202191     -0.311512
  H       0.674971     -3.096576     -1.296623
  H       0.394845     -3.573875      0.396972
  H       1.957507     -3.950445     -0.384457
  C       3.129284      1.345526     -1.256474
  H       4.090843      1.877670     -1.161164
  H       2.517216      1.856652     -2.017687
  H       3.322596      0.312885     -1.587690
  H      -1.715880     -1.365290      2.674314
  H      -1.633600     -2.959592      1.853748
28
Coordinates from ORCA-job Ni_Fe_triplet_min E -4822.306905234685
  Fe     -2.282078      0.984135      0.420234
  Ni      0.477091      0.027331     -0.007647
  S      -1.385603     -1.144679      0.276192
  S      -0.699438      1.534394     -1.199490
  C      -1.183959     -1.954708      1.918402
  H      -0.111823     -2.046872      2.137468
  C      -0.057527      3.237876     -1.040250
  H       0.246946      3.573369     -2.043420
  H       0.817539      3.225049     -0.370033
  H      -0.851133      3.882574     -0.641128
  C      -3.562519      0.560348     -0.794647
  O      -4.397148      0.282265     -1.569522
  C      -3.094242      0.621061      2.126155
  N      -3.583785      0.374523      3.169792
  C      -2.696634      2.829831      0.708580
  N      -2.944322      3.973478      0.851795
  S       1.916772     -1.628332      0.229300
  S       2.286570      1.321146      0.380557
  C       1.147528     -3.204231     -0.327344
  H       0.675770     -3.097200     -1.313965
  H       0.389289     -3.577558      0.377332
  H       1.955562     -3.951890     -0.398564
  C       3.133082      1.352307     -1.233001
  H       4.092804      1.885317     -1.125124
  H       2.528840      1.865345     -1.999238
  H       3.331266      0.320951     -1.565167
  H      -1.689873     -1.353157      2.682716
  H      -1.649721     -2.950624      1.866694
28
Coordinates from ORCA-job Ni_Fe_triplet_min E -4822.306932161127
  Fe     -2.282844      0.983498      0.420778
  Ni      0.468148      0.023227     -0.013002
  S      -1.394073     -1.148026      0.277958
  S      -0.707317      1.525485     -1.210172
  C      -1.180568     -1.953214      1.920522
  H      -0.106937     -2.062562      2.123617
  C      -0.061291      3.227712     -1.060054
  H       0.247096      3.554560     -2.064842
  H       0.810184      3.217495     -0.384991
  H      -0.855452      3.876997     -0.669131
  C      -3.570052      0.557886     -0.784031
  O      -4.408855      0.284078     -1.555993
  C      -3.071624      0.632134      2.140125
  N      -3.544585      0.392166      3.192875
  C      -2.703101      2.828247      0.700498
  N      -2.951982      3.972477      0.836687
  S       1.909156     -1.632640      0.218130
  S       2.268171      1.321575      0.398043
  C       1.144342     -3.206747     -0.347440
  H       0.680612     -3.098807     -1.337884
  H       0.379025     -3.579386      0.350126
  H       1.952144     -3.955085     -0.412155
  C       3.137583      1.360564     -1.203467
  H       4.094816      1.894346     -1.078871
  H       2.543688      1.876522     -1.975858
  H       3.341969      0.331009     -1.537296
  H      -1.664304     -1.340393      2.690293
  H      -1.664696     -2.941070      1.882215
28
Coordinates from ORCA-job Ni_Fe_triplet_min E -4822.306959154810
  Fe     -2.282040      0.983315      0.421077
  Ni      0.459355      0.017942     -0.017668
  S      -1.402361     -1.151920      0.280904
  S      -0.713882      1.514205     -1.222121
  C      -1.177923     -1.952525      1.924229
  H      -0.103434     -2.073991      2.115105
  C      -0.065660      3.216623     -1.080336
  H       0.251733      3.534021     -2.085278
  H       0.796758      3.213552     -0.394039
  H      -0.864478      3.869274     -0.704386
  C      -3.576912      0.556236     -0.772158
  O      -4.421160      0.287916     -1.540127
  C      -3.045661      0.643000      2.154773
  N      -3.499971      0.406173      3.216402
  C      -2.706933      2.827645      0.691128
  N      -2.955504      3.973022      0.818046
  S       1.902367     -1.637332      0.207105
  S       2.249618      1.320913      0.415821
  C       1.140528     -3.208695     -0.368994
  H       0.690217     -3.099919     -1.365653
  H       0.363922     -3.577280      0.318147
  H       1.946238     -3.960117     -0.422256
  C       3.141013      1.369363     -1.173636
  H       4.095313      1.904120     -1.032070
  H       2.557113      1.888728     -1.951359
  H       3.352079      0.342112     -1.510268
  H      -1.645191     -1.330367      2.696708
  H      -1.675892     -2.933964      1.897584
28
Coordinates from ORCA-job Ni_Fe_triplet_min E -4822.306981879924
  Fe     -2.279298      0.983537      0.421249
  Ni      0.453400      0.012592     -0.019352
  S      -1.408034     -1.155486      0.285357
  S      -0.716769      1.502942     -1.231771
  C      -1.177496     -1.954276      1.929179
  H      -0.102612     -2.080843      2.114121
  C      -0.069309      3.206991     -1.095208
  H       0.262910      3.516091     -2.097872
  H       0.779693      3.213505     -0.393055
  H      -0.875748      3.861391     -0.738887
  C      -3.580629      0.555335     -0.761604
  O      -4.430143      0.291730     -1.525426
  C      -3.022791      0.652430      2.166720
  N      -3.461761      0.416091      3.234907
  C      -2.706869      2.828278      0.681031
  N      -2.954398      3.974975      0.798047
  S       1.898669     -1.641211      0.200459
  S       2.235867      1.320054      0.429400
  C       1.137241     -3.208783     -0.386852
  H       0.702710     -3.098113     -1.390369
  H       0.348063     -3.571629      0.288670
  H       1.939160     -3.965110     -0.427585
  C       3.141557      1.377097     -1.151805
  H       4.093705      1.912417     -0.998414
  H       2.564265      1.899668     -1.932288
  H       3.357335      0.351966     -1.491882
  H      -1.637454     -1.327087      2.701976
  H      -1.682011     -2.932503      1.907934
28
Coordinates from ORCA-job Ni_Fe_triplet_min E -4822.307000694333
  Fe     -2.275461      0.984071      0.421624
  Ni      0.449867      0.008178     -0.018286
  S      -1.411135     -1.158605      0.290651
  S      -0.717005      1.493186     -1.238507
  C      -1.178897     -1.958838      1.934121
  H      -0.103752     -2.085548      2.117442
  C      -0.072174      3.199329     -1.104963
  H       0.280340      3.500637     -2.103027
  H       0.760878      3.215367     -0.384660
  H      -0.886973      3.855239     -0.771257
  C      -3.581781      0.554867     -0.752509
  O      -4.436087      0.294675     -1.512254
  C      -3.004308      0.661120      2.176028
  N      -3.432445      0.425065      3.248695
  C      -2.704322      2.829764      0.670439
  N      -2.951408      3.977524      0.778083
  S       1.897603     -1.643393      0.197919
  S       2.227310      1.318990      0.439240
  C       1.134682     -3.206650     -0.400135
  H       0.713211     -3.092270     -1.408811
  H       0.335636     -3.565065      0.265734
  H       1.932553     -3.967828     -0.432435
  C       3.139959      1.383093     -1.137582
  H       4.090589      1.919334     -0.978052
  H       2.565593      1.907544     -1.918938
  H       3.359038      0.359643     -1.480653
  H      -1.638112     -1.330794      2.706683
  H      -1.684148     -2.936585      1.912090
28
Coordinates from ORCA-job Ni_Fe_triplet_min E -4822.307016557421
  Fe     -2.271300      0.984920      0.422593
  Ni      0.447685      0.005042     -0.015166
  S      -1.413049     -1.160978      0.295317
  S      -0.716316      1.484825     -1.243083
  C      -1.182283     -1.965596      1.937213
  H      -0.106970     -2.090282      2.121196
  C      -0.073976      3.192412     -1.112582
  H       0.300644      3.485594     -2.105023
  H       0.743760      3.216129     -0.375430
  H      -0.895522      3.850747     -0.801252
  C      -3.582191      0.555175     -0.743435
  O      -4.441362      0.297611     -1.498763
  C      -2.988639      0.669562      2.184074
  N      -3.409270      0.434813      3.260018
  C      -2.700712      2.831718      0.660214
  N      -2.948635      3.980066      0.759741
  S       1.897786     -1.643944      0.199042
  S       2.220888      1.320162      0.446618
  C       1.133508     -3.202968     -0.409481
  H       0.719053     -3.082585     -1.420321
  H       0.329558     -3.560970      0.250407
  H       1.928819     -3.967042     -0.440584
  C       3.137206      1.388118     -1.127646
  H       4.086692      1.925661     -0.965604
  H       2.564099      1.912554     -1.909918
  H       3.358784      0.365499     -1.471693
  H      -1.643992     -1.339793      2.710200
  H      -1.685011     -2.944398      1.910026
28
Coordinates from ORCA-job Ni_Fe_triplet_min E -4822.307031108652
  Fe     -2.267787      0.985907      0.424010
  Ni      0.445158      0.003980     -0.011839
  S      -1.414471     -1.162776      0.298418
  S      -0.716851      1.478800     -1.246883
  C      -1.185919     -1.972777      1.938002
  H      -0.110434     -2.094084      2.123526
  C      -0.075523      3.186642     -1.120532
  H       0.319224      3.471289     -2.107719
  H       0.729950      3.215561     -0.370206
  H      -0.901149      3.848565     -0.828617
  C      -3.583511      0.555508     -0.733784
  O      -4.447760      0.299517     -1.484057
  C      -2.974271      0.677536      2.191904
  N      -3.388875      0.444977      3.270677
  C      -2.698401      2.833574      0.650845
  N      -2.949071      3.981901      0.743701
  S       1.897592     -1.642291      0.200128
  S       2.215899      1.321719      0.453835
  C       1.132909     -3.198136     -0.416686
  H       0.719762     -3.071332     -1.427184
  H       0.328370     -3.558784      0.240927
  H       1.927449     -3.962933     -0.451805
  C       3.135567      1.391150     -1.118102
  H       4.084535      1.929148     -0.954469
  H       2.564042      1.915368     -1.901678
  H       3.358389      0.368728     -1.461999
  H      -1.651488     -1.351095      2.712138
  H      -1.684085     -2.953610      1.904130
28
Coordinates from ORCA-job Ni_Fe_triplet_min E -4822.307047111536
  Fe     -2.263841      0.986908      0.426094
  Ni      0.442004      0.003679     -0.007525
  S      -1.416824     -1.163924      0.299999
  S      -0.718462      1.472523     -1.251234
  C      -1.191480     -1.980477      1.936451
  H      -0.116017     -2.100269      2.123440
  C      -0.075857      3.179324     -1.131193
  H       0.333346      3.455382     -2.115048
  H       0.722540      3.211228     -0.373301
  H      -0.902549      3.845720     -0.853124
  C      -3.586235      0.555869     -0.721198
  O      -4.456642      0.300616     -1.464787
  C      -2.956972      0.686654      2.201574
  N      -3.364739      0.457611      3.283699
  C      -2.697019      2.835263      0.640994
  N      -2.952562      3.983017      0.727252
  S       1.896078     -1.640183      0.202465
  S       2.208440      1.327231      0.462370
  C       1.133446     -3.192985     -0.424454
  H       0.720784     -3.058898     -1.434115
  H       0.328929     -3.558386      0.230597
  H       1.928348     -3.957145     -0.464881
  C       3.134082      1.395129     -1.105859
  H       4.082407      1.933570     -0.939935
  H       2.565582      1.918001     -1.892559
  H       3.358356      0.372196     -1.447368
  H      -1.659559     -1.362926      2.712568
  H      -1.686335     -2.962677      1.895756
28
Coordinates from ORCA-job Ni_Fe_triplet_min E -4822.307066921356
  Fe     -2.259314      0.987814      0.428355
  Ni      0.436092      0.004849     -0.003933
  S      -1.420063     -1.165614      0.300046
  S      -0.722663      1.466953     -1.258285
  C      -1.196858     -1.987859      1.933356
  H      -0.121457     -2.107030      2.121304
  C      -0.076516      3.171683     -1.146638
  H       0.343578      3.438105     -2.128696
  H       0.717567      3.205736     -0.383971
  H      -0.902427      3.843659     -0.880092
  C      -3.590435      0.554727     -0.705391
  O      -4.468384      0.298650     -1.439906
  C      -2.933224      0.697799      2.214164
  N      -3.331330      0.473780      3.300921
  C      -2.698289      2.836285      0.629114
  N      -2.962167      3.982664      0.707911
  S       1.892144     -1.636394      0.199941
  S       2.200042      1.330665      0.476390
  C       1.133129     -3.187340     -0.435287
  H       0.719626     -3.047399     -1.443738
  H       0.329419     -3.557795      0.218041
  H       1.929253     -3.949851     -0.480811
  C       3.134331      1.398674     -1.086545
  H       4.082778      1.935238     -0.915334
  H       2.571177      1.923275     -1.875996
  H       3.358534      0.375603     -1.427656
  H      -1.665998     -1.373752      2.711745
  H      -1.689294     -2.971075      1.887671
28
Coordinates from ORCA-job Ni_Fe_triplet_min E -4822.307090982172
  Fe     -2.251666      0.988544      0.430895
  Ni      0.428766      0.004955      0.001250
  S      -1.425841     -1.167285      0.298401
  S      -0.727339      1.457711     -1.268977
  C      -1.206415     -1.996089      1.928126
  H      -0.131598     -2.120689      2.116103
  C      -0.075791      3.159958     -1.168117
  H       0.347205      3.417227     -2.151481
  H       0.718228      3.196169     -0.405127
  H      -0.899304      3.837398     -0.907811
  C      -3.595325      0.553622     -0.683891
  O      -4.483306      0.296118     -1.405756
  C      -2.898188      0.712931      2.230703
  N      -3.282404      0.496319      3.323922
  C      -2.699462      2.836490      0.614840
  N      -2.974638      3.980763      0.684478
  S       1.885815     -1.634302      0.197944
  S       2.185261      1.339713      0.495119
  C       1.134159     -3.182875     -0.450453
  H       0.724938     -3.037115     -1.459852
  H       0.327494     -3.558297      0.196540
  H       1.931721     -3.943684     -0.496633
  C       3.133310      1.406673     -1.059616
  H       4.080896      1.942016     -0.880012
  H       2.577855      1.932267     -1.853924
  H       3.359158      0.383351     -1.398846
  H      -1.671878     -1.382375      2.709230
  H      -1.702398     -2.977462      1.879624
28
Coordinates from ORCA-job Ni_Fe_triplet_min E -4822.307117562868
  Fe     -2.241852      0.989167      0.432299
  Ni      0.419366      0.005336      0.005253
  S      -1.432086     -1.170089      0.295309
  S      -0.732727      1.448394     -1.283435
  C      -1.216145     -2.003534      1.922531
  H      -0.142165     -2.134760      2.110706
  C      -0.076932      3.149388     -1.192196
  H       0.348377      3.398169     -2.176759
  H       0.713735      3.190349     -0.425837
  H      -0.899871      3.830993     -0.940538
  C      -3.599066      0.552193     -0.661374
  O      -4.498109      0.292534     -1.368490
  C      -2.855875      0.729518      2.247424
  N      -3.223941      0.521092      3.347768
  C      -2.700733      2.835525      0.600101
  N      -2.988876      3.977127      0.660263
  S       1.878367     -1.631576      0.190256
  S       2.170986      1.343989      0.518322
  C       1.134622     -3.179540     -0.467644
  H       0.731105     -3.031985     -1.479178
  H       0.324028     -3.557573      0.172976
  H       1.933674     -3.938856     -0.510300
  C       3.132868      1.414040     -1.028037
  H       4.080057      1.946341     -0.837625
  H       2.585753      1.944438     -1.824986
  H       3.359210      0.391599     -1.369407
  H      -1.676737     -1.388087      2.705297
  H      -1.717783     -2.982144      1.873982
28
Coordinates from ORCA-job Ni_Fe_triplet_min E -4822.307144564223
  Fe     -2.229367      0.989707      0.432649
  Ni      0.411279      0.004524      0.010673
  S      -1.438556     -1.172510      0.291079
  S      -0.735914      1.436833     -1.299229
  C      -1.229661     -2.011758      1.915920
  H      -0.157129     -2.153127      2.104962
  C      -0.079334      3.138774     -1.214881
  H       0.343588      3.383425     -2.201403
  H       0.707644      3.185873     -0.445397
  H      -0.903460      3.821146     -0.968475
  C      -3.600670      0.553474     -0.638716
  O      -4.511444      0.292358     -1.329954
  C      -2.811306      0.746199      2.261576
  N      -3.164236      0.546293      3.368455
  C      -2.697587      2.834083      0.587625
  N      -2.996790      3.973278      0.639091
  S       1.872257     -1.630240      0.186403
  S       2.155462      1.351687      0.539179
  C       1.138057     -3.177598     -0.482916
  H       0.746293     -3.030092     -1.499222
  H       0.319741     -3.556385      0.147374
  H       1.938022     -3.936376     -0.516142
  C       3.130616      1.422218     -0.999253
  H       4.076097      1.954161     -0.799524
  H       2.590472      1.954124     -1.799946
  H       3.359734      0.400316     -1.340213
  H      -1.683797     -1.392797      2.699801
  H      -1.740759     -2.985540      1.867165
28
Coordinates from ORCA-job Ni_Fe_triplet_min E -4822.307169658079
  Fe     -2.215419      0.989936      0.432026
  Ni      0.403493      0.001888      0.016301
  S      -1.444868     -1.176022      0.288720
  S      -0.737402      1.422984     -1.316141
  C      -1.243499     -2.020803      1.911635
  H      -0.172561     -2.177396      2.097839
  C      -0.083486      3.127537     -1.236613
  H       0.343760      3.368325     -2.222076
  H       0.693431      3.183085     -0.458063
  H      -0.911757      3.809070     -1.001460
  C      -3.599551      0.556373     -0.617484
  O      -4.521589      0.294968     -1.293486
  C      -2.766569      0.763267      2.272687
  N      -3.105303      0.573229      3.385757
  C      -2.690549      2.832108      0.575957
  N      -2.997790      3.969579      0.618619
  S       1.867982     -1.630069      0.183317
  S       2.140579      1.355841      0.560493
  C       1.141860     -3.175840     -0.498302
  H       0.765711     -3.028574     -1.520664
  H       0.313478     -3.553246      0.119477
  H       1.941090     -3.935907     -0.519306
  C       3.125712      1.431836     -0.971629
  H       4.068248      1.965968     -0.763939
  H       2.589324      1.964703     -1.774186
  H       3.359958      0.411676     -1.314184
  H      -1.685780     -1.395642      2.697462
  H      -1.769254     -2.986823      1.863922
28
Coordinates from ORCA-job Ni_Fe_triplet_min E -4822.307202467164
  Fe     -2.197233      0.990495      0.431255
  Ni      0.393991     -0.000638      0.025371
  S      -1.452590     -1.179621      0.286812
  S      -0.739425      1.403498     -1.337730
  C      -1.263220     -2.033077      1.906633
  H      -0.194901     -2.214041      2.086166
  C      -0.092322      3.112416     -1.265238
  H       0.337772      3.350494     -2.249949
  H       0.674865      3.177886     -0.478421
  H      -0.925811      3.790965     -1.039726
  C      -3.596876      0.563176     -0.589394
  O      -4.533271      0.301869     -1.245619
  C      -2.712798      0.783263      2.283424
  N      -3.035890      0.605468      3.403202
  C      -2.678198      2.829758      0.564528
  N      -2.992573      3.965711      0.596980
  S       1.864807     -1.627979      0.184354
  S       2.120317      1.365008      0.585355
  C       1.150116     -3.170286     -0.516960
  H       0.795946     -3.020801     -1.546957
  H       0.308232     -3.547134      0.082596
  H       1.947919     -3.932273     -0.523268
  C       3.119742      1.441160     -0.937734
  H       4.058376      1.978855     -0.721641
  H       2.589089      1.971714     -1.745539
  H       3.360572      0.421683     -1.277635
  H      -1.685680     -1.399187      2.696484
  H      -1.811705     -2.986332      1.859329
28
Coordinates from ORCA-job Ni_Fe_triplet_min E -4822.307258435595
  Fe     -2.163297      0.990494      0.430017
  Ni      0.376903     -0.008642      0.042955
  S      -1.467637     -1.187431      0.289673
  S      -0.741768      1.362066     -1.376229
  C      -1.298129     -2.053245      1.904984
  H      -0.236918     -2.289360      2.062708
  C      -0.104743      3.076976     -1.321102
  H       0.342309      3.303334     -2.300839
  H       0.639681      3.161830     -0.515091
  H      -0.947427      3.752891     -1.123416
  C      -3.587298      0.576442     -0.539505
  O      -4.547071      0.316576     -1.162209
  C      -2.617544      0.817390      2.298819
  N      -2.912487      0.662363      3.429772
  C      -2.653889      2.823955      0.547363
  N      -2.978739      3.957479      0.563265
  S       1.859654     -1.628081      0.186779
  S       2.080690      1.378580      0.634560
  C       1.163118     -3.158997     -0.556536
  H       0.855045     -2.999957     -1.600007
  H       0.292875     -3.531351      0.004021
  H       1.953157     -3.929045     -0.535482
  C       3.102172      1.466085     -0.873386
  H       4.031932      2.012974     -0.642458
  H       2.578040      1.993617     -1.687407
  H       3.358202      0.450308     -1.213146
  H      -1.670409     -1.399505      2.704040
  H      -1.897171     -2.975697      1.864534
28
Coordinates from ORCA-job Ni_Fe_triplet_min E -4822.307334783012
  Fe     -2.129608      0.993394      0.435473
  Ni      0.366027     -0.010401      0.072762
  S      -1.476226     -1.190473      0.290481
  S      -0.742308      1.319620     -1.403414
  C      -1.341291     -2.072995      1.899997
  H      -0.292171     -2.370335      2.035851
  C      -0.132701      3.047139     -1.371137
  H       0.312462      3.271732     -2.351880
  H       0.601463      3.152991     -0.558788
  H      -0.987389      3.709807     -1.181212
  C      -3.568190      0.608072     -0.490828
  O      -4.548378      0.352275     -1.083750
  C      -2.563445      0.825261      2.300270
  N      -2.856249      0.680101      3.433197
  C      -2.600455      2.825346      0.553691
  N      -2.911783      3.963085      0.557276
  S       1.867732     -1.620591      0.213519
  S       2.052996      1.400401      0.666405
  C       1.196269     -3.138966     -0.578200
  H       0.952630     -2.970750     -1.637291
  H       0.289840     -3.501719     -0.071234
  H       1.972808     -3.921078     -0.518461
  C       3.084067      1.474437     -0.835777
  H       4.006481      2.034761     -0.607473
  H       2.559297      1.985179     -1.659945
  H       3.352521      0.457239     -1.161300
  H      -1.660990     -1.403843      2.708981
  H      -1.994155     -2.957641      1.859466
28
Coordinates from ORCA-job Ni_Fe_triplet_min E -4822.307534107622
  Fe     -2.122661      0.992287      0.444461
  Ni      0.363482     -0.016161      0.084570
  S      -1.481613     -1.193942      0.300799
  S      -0.749296      1.290230     -1.410753
  C      -1.352771     -2.082954      1.906752
  H      -0.313287     -2.423355      2.015300
  C      -0.149216      3.020459     -1.411098
  H       0.313247      3.224874     -2.388352
  H       0.572605      3.146822     -0.590526
  H      -1.009364      3.682650     -1.247361
  C      -3.569443      0.623655     -0.460718
  O      -4.557785      0.379010     -1.045591
  C      -2.547146      0.830259      2.306938
  N      -2.833065      0.692952      3.442659
  C      -2.573593      2.826460      0.561909
  N      -2.867286      3.969013      0.559262
  S       1.870656     -1.626478      0.231569
  S       2.029528      1.413807      0.686397
  C       1.209099     -3.124759     -0.604717
  H       1.028426     -2.942493     -1.674147
  H       0.267046     -3.466915     -0.151396
  H       1.961214     -3.927262     -0.511017
  C       3.078163      1.486189     -0.803550
  H       3.991963      2.058382     -0.570189
  H       2.557849      1.984233     -1.638331
  H       3.360898      0.469318     -1.117671
  H      -1.625935     -1.404857      2.725025
  H      -2.042466     -2.939374      1.876456
28
Coordinates from ORCA-job Ni_Fe_triplet_min E -4822.308300842931
  Fe     -2.122839      0.991650      0.472875
  Ni      0.371306     -0.021070      0.110549
  S      -1.478943     -1.198016      0.326068
  S      -0.764868      1.247471     -1.400427
  C      -1.362659     -2.093993      1.925374
  H      -0.329917     -2.462289      2.009874
  C      -0.167764      2.969105     -1.489230
  H       0.319940      3.117444     -2.465181
  H       0.561103      3.126221     -0.678581
  H      -1.022875      3.644281     -1.362914
  C      -3.572178      0.650315     -0.406564
  O      -4.565013      0.419310     -0.991082
  C      -2.593343      0.822160      2.313452
  N      -2.893987      0.679376      3.444736
  C      -2.511830      2.836840      0.601990
  N      -2.749101      3.992541      0.595395
  S       1.886207     -1.640740      0.256600
  S       2.003331      1.439890      0.718565
  C       1.226534     -3.098941     -0.645615
  H       1.107453     -2.873240     -1.715633
  H       0.248766     -3.415938     -0.254174
  H       1.942629     -3.932603     -0.544365
  C       3.067682      1.511856     -0.760004
  H       3.972510      2.098841     -0.528745
  H       2.549017      1.992017     -1.606533
  H       3.365123      0.494987     -1.059180
  H      -1.606428     -1.420414      2.755899
  H      -2.070605     -2.935013      1.893527
28
Coordinates from ORCA-job Ni_Fe_triplet_min E -4822.309170192333
  Fe     -2.107285      0.987157      0.497178
  Ni      0.371963     -0.024900      0.132793
  S      -1.480375     -1.204354      0.355918
  S      -0.791904      1.190113     -1.411380
  C      -1.379252     -2.102982      1.950649
  H      -0.351231     -2.489529      2.018403
  C      -0.185845      2.892341     -1.593753
  H       0.320076      2.977917     -2.568867
  H       0.557273      3.077792     -0.800358
  H      -1.029663      3.585933     -1.502961
  C      -3.568645      0.673428     -0.320735
  O      -4.572696      0.441167     -0.887160
  C      -2.609365      0.836813      2.322350
  N      -2.912231      0.701498      3.454031
  C      -2.451476      2.840017      0.626706
  N      -2.647026      4.003410      0.611924
  S       1.898791     -1.654102      0.242407
  S       1.956066      1.476791      0.776821
  C       1.233252     -3.067217     -0.720155
  H       1.158236     -2.793054     -1.783068
  H       0.229391     -3.357061     -0.377060
  H       1.913676     -3.931076     -0.631252
  C       3.062830      1.551044     -0.671053
  H       3.952130      2.156129     -0.426780
  H       2.560383      2.010714     -1.538656
  H       3.383343      0.535624     -0.948724
  H      -1.603997     -1.435916      2.791285
  H      -2.097166     -2.935647      1.918176
28
Coordinates from ORCA-job Ni_Fe_triplet_min E -4822.310241934970
  Fe     -2.133898      0.976355      0.516048
  Ni      0.386972     -0.025108      0.116608
  S      -1.474237     -1.209212      0.377280
  S      -0.832912      1.172032     -1.411960
  C      -1.355267     -2.080770      1.983137
  H      -0.320966     -2.451610      2.049565
  C      -0.186486      2.842829     -1.652140
  H       0.314113      2.875545     -2.634107
  H       0.591498      3.026633     -0.890960
  H      -1.001260      3.571161     -1.569348
  C      -3.608972      0.676872     -0.270728
  O      -4.609524      0.442311     -0.842046
  C      -2.719456      0.818208      2.312314
  N      -3.047554      0.682744      3.436770
  C      -2.414123      2.845997      0.659346
  N      -2.563091      4.015652      0.671298
  S       1.924967     -1.662987      0.178349
  S       1.934762      1.505483      0.792400
  C       1.225342     -3.061027     -0.777308
  H       1.118780     -2.760037     -1.830550
  H       0.226782     -3.342017     -0.412643
  H       1.896873     -3.933907     -0.727550
  C       3.091551      1.578847     -0.618275
  H       3.966468      2.196692     -0.354707
  H       2.615047      2.020449     -1.509426
  H       3.430050      0.563031     -0.870055
  H      -1.588517     -1.413760      2.821444
  H      -2.057694     -2.928355      1.973921
28
Coordinates from ORCA-job Ni_Fe_triplet_min E -4822.311816106667
  Fe     -2.134663      0.966857      0.523429
  Ni      0.386423     -0.041668      0.098054
  S      -1.489935     -1.224097      0.384647
  S      -0.876487      1.109076     -1.449518
  C      -1.362725     -2.075275      2.000435
  H      -0.336995     -2.469319      2.061380
  C      -0.205744      2.766969     -1.724850
  H       0.298560      2.767491     -2.705423
  H       0.557687      2.977327     -0.958054
  H      -1.013348      3.507310     -1.674746
  C      -3.644297      0.705122     -0.197235
  O      -4.668238      0.505153     -0.738995
  C      -2.712477      0.830732      2.321056
  N      -3.026058      0.718617      3.452170
  C      -2.352249      2.848640      0.647363
  N      -2.471885      4.021102      0.667825
  S       1.940247     -1.677762      0.116113
  S       1.872223      1.530799      0.827635
  C       1.238741     -3.063412     -0.855151
  H       1.139947     -2.756005     -1.907846
  H       0.235025     -3.336460     -0.498381
  H       1.902138     -3.942268     -0.805724
  C       3.101588      1.627388     -0.522109
  H       3.948254      2.262841     -0.212096
  H       2.664823      2.059993     -1.437631
  H       3.472388      0.618688     -0.755648
  H      -1.567857     -1.390287      2.832391
  H      -2.085836     -2.905503      2.027589
28
Coordinates from ORCA-job Ni_Fe_triplet_min E -4822.313273634342
  Fe     -2.151669      0.955023      0.509270
  Ni      0.394213     -0.060991      0.047375
  S      -1.498800     -1.237730      0.387653
  S      -0.911867      1.077801     -1.487527
  C      -1.342333     -2.035532      2.031923
  H      -0.315927     -2.417502      2.122445
  C      -0.221623      2.751628     -1.717230
  H       0.262515      2.782755     -2.705679
  H       0.501236      2.975197     -0.922151
  H      -1.035618      3.487442     -1.667934
  C      -3.690391      0.716447     -0.178125
  O      -4.727310      0.546461     -0.704644
  C      -2.740983      0.823145      2.306884
  N      -3.050903      0.719568      3.440019
  C      -2.322279      2.849491      0.599279
  N      -2.430485      4.022570      0.632740
  S       1.954776     -1.694720      0.006352
  S       1.854356      1.511708      0.828590
  C       1.244069     -3.108406     -0.920283
  H       1.096268     -2.848128     -1.979926
  H       0.266355     -3.401140     -0.509595
  H       1.934654     -3.966244     -0.862238
  C       3.137315      1.645063     -0.469898
  H       3.961439      2.280775     -0.105031
  H       2.732278      2.096018     -1.390632
  H       3.527439      0.645910     -0.713939
  H      -1.554988     -1.309466      2.827451
  H      -2.062488     -2.865092      2.111531
28
Coordinates from ORCA-job Ni_Fe_triplet_min E -4822.313826739127
  Fe     -2.128384      0.951870      0.513725
  Ni      0.400706     -0.072006      0.039527
  S      -1.498252     -1.246512      0.410820
  S      -0.936643      1.015204     -1.510281
  C      -1.342862     -2.035076      2.058292
  H      -0.320182     -2.428206      2.144851
  C      -0.265168      2.689654     -1.794224
  H       0.250118      2.691489     -2.766977
  H       0.421620      2.959612     -0.982247
  H      -1.092856      3.411517     -1.800024
  C      -3.673551      0.743378     -0.114981
  O      -4.726785      0.594331     -0.617481
  C      -2.705783      0.854627      2.309716
  N      -2.997897      0.770359      3.449441
  C      -2.274603      2.845263      0.579826
  N      -2.362962      4.020785      0.597059
  S       1.963572     -1.713056     -0.051282
  S       1.802214      1.519460      0.875524
  C       1.237525     -3.102041     -1.000301
  H       1.107163     -2.832157     -2.059737
  H       0.250666     -3.377038     -0.600090
  H       1.908678     -3.975702     -0.942467
  C       3.141044      1.677303     -0.362355
  H       3.945702      2.311370      0.045752
  H       2.771730      2.140019     -1.292196
  H       3.545261      0.684301     -0.606870
  H      -1.540709     -1.299592      2.848480
  H      -2.070112     -2.857106      2.145180
28
Coordinates from ORCA-job Ni_Fe_triplet_min E -4822.314358245912
  Fe     -2.129903      0.952981      0.506332
  Ni      0.399799     -0.070834      0.011962
  S      -1.494355     -1.248280      0.432960
  S      -0.954197      0.999654     -1.526039
  C      -1.308435     -2.013108      2.087675
  H      -0.276963     -2.383137      2.175116
  C      -0.280920      2.668087     -1.829918
  H       0.263083      2.652230     -2.786708
  H       0.384727      2.952900     -1.003989
  H      -1.109971      3.387141     -1.873358
  C      -3.681489      0.728528     -0.108719
  O      -4.738160      0.582132     -0.604974
  C      -2.656819      0.877756      2.324448
  N      -2.910760      0.801907      3.473851
  C      -2.317471      2.844661      0.529219
  N      -2.440198      4.017161      0.532626
  S       1.953411     -1.709264     -0.136086
  S       1.780496      1.495990      0.913408
  C       1.201651     -3.097893     -1.062336
  H       1.038712     -2.833250     -2.118306
  H       0.229598     -3.374450     -0.629030
  H       1.876361     -3.969855     -1.019696
  C       3.162095      1.672649     -0.272286
  H       3.967558      2.271199      0.184611
  H       2.831311      2.179384     -1.193591
  H       3.551629      0.680939     -0.544421
  H      -1.517083     -1.270927      2.868417
  H      -2.014455     -2.852252      2.185512
28
Coordinates from ORCA-job Ni_Fe_triplet_min E -4822.315038142073
  Fe     -2.136893      0.956112      0.512047
  Ni      0.422874     -0.070030      0.003736
  S      -1.475764     -1.246521      0.472741
  S      -0.960509      0.978499     -1.511560
  C      -1.275528     -1.989745      2.136317
  H      -0.238447     -2.344518      2.225468
  C      -0.311744      2.651558     -1.846354
  H       0.250861      2.629785     -2.791638
  H       0.338785      2.950627     -1.012265
  H      -1.151815      3.355205     -1.912271
  C      -3.685224      0.725511     -0.120661
  O      -4.740710      0.586362     -0.621743
  C      -2.682096      0.885890      2.322758
  N      -2.947344      0.815226      3.469837
  C      -2.324196      2.845495      0.502550
  N      -2.454061      4.017464      0.495336
  S       1.965837     -1.705006     -0.214220
  S       1.784248      1.474491      0.932667
  C       1.183403     -3.086141     -1.123462
  H       1.019883     -2.836492     -2.182756
  H       0.213003     -3.345021     -0.676422
  H       1.846271     -3.967154     -1.070740
  C       3.188932      1.656888     -0.220752
  H       4.001331      2.224316      0.262541
  H       2.877984      2.196004     -1.130444
  H       3.561472      0.665907     -0.520050
  H      -1.495547     -1.240937      2.906800
  H      -1.965756     -2.841724      2.229220
28
Coordinates from ORCA-job Ni_Fe_triplet_min E -4822.315558071764
  Fe     -2.145112      0.953477      0.523237
  Ni      0.440510     -0.078279      0.019949
  S      -1.463291     -1.247659      0.535780
  S      -0.965464      0.933815     -1.487326
  C      -1.258626     -1.953558      2.216190
  H      -0.216570     -2.289954      2.314166
  C      -0.325243      2.601761     -1.866551
  H       0.250355      2.556390     -2.803144
  H       0.318605      2.921387     -1.035687
  H      -1.168092      3.298149     -1.959123
  C      -3.689022      0.713778     -0.120710
  O      -4.743188      0.572325     -0.623165
  C      -2.705898      0.905763      2.327456
  N      -2.982154      0.850100      3.472818
  C      -2.335884      2.838905      0.472974
  N      -2.471953      4.009808      0.442622
  S       1.967699     -1.712183     -0.264802
  S       1.782704      1.452122      0.962977
  C       1.176418     -3.046604     -1.232902
  H       1.046941     -2.764965     -2.289334
  H       0.189406     -3.293317     -0.816767
  H       1.816414     -3.944857     -1.187822
  C       3.208560      1.639506     -0.163833
  H       4.019631      2.193776      0.336952
  H       2.913605      2.192620     -1.070545
  H       3.578170      0.650406     -0.473035
  H      -1.495369     -1.194223      2.971290
  H      -1.933899     -2.816439      2.315013
28
Coordinates from ORCA-job Ni_Fe_triplet_min E -4822.316111491618
  Fe     -2.152034      0.946283      0.523578
  Ni      0.465001     -0.071447      0.025697
  S      -1.439150     -1.245732      0.562440
  S      -0.963445      0.912667     -1.468099
  C      -1.234755     -1.930559      2.253066
  H      -0.188529     -2.249783      2.356415
  C      -0.329402      2.579200     -1.871408
  H       0.250124      2.515971     -2.804778
  H       0.314959      2.914538     -1.048696
  H      -1.173413      3.271548     -1.978899
  C      -3.689877      0.695494     -0.133655
  O      -4.741766      0.541038     -0.635715
  C      -2.734706      0.900114      2.317838
  N      -3.030427      0.847210      3.458534
  C      -2.351682      2.827344      0.461685
  N      -2.493427      3.997065      0.416797
  S       1.981159     -1.693809     -0.338822
  S       1.793233      1.447334      0.974066
  C       1.142618     -3.021824     -1.275998
  H       0.977837     -2.734997     -2.326785
  H       0.166935     -3.254840     -0.825758
  H       1.772139     -3.927973     -1.257141
  C       3.239016      1.633211     -0.130718
  H       4.048987      2.174309      0.386488
  H       2.963311      2.198436     -1.036047
  H       3.603893      0.644035     -0.445112
  H      -1.489290     -1.170553      3.002060
  H      -1.898057     -2.802231      2.355646
28
Coordinates from ORCA-job Ni_Fe_triplet_min E -4822.316629352612
  Fe     -2.162242      0.931613      0.527253
  Ni      0.482983     -0.078564      0.057724
  S      -1.424879     -1.247903      0.611413
  S      -0.957112      0.868433     -1.440106
  C      -1.229593     -1.893949      2.319388
  H      -0.181645     -2.200481      2.436881
  C      -0.309831      2.524465     -1.871817
  H       0.270712      2.427969     -2.801985
  H       0.335469      2.882455     -1.060243
  H      -1.147837      3.220412     -2.003777
  C      -3.696127      0.664744     -0.135605
  O      -4.746643      0.484959     -0.631125
  C      -2.762769      0.906837      2.315002
  N      -3.078220      0.867969      3.451066
  C      -2.372558      2.808658      0.440887
  N      -2.518655      3.976317      0.366857
  S       1.982472     -1.692274     -0.377527
  S       1.809849      1.431368      0.998135
  C       1.121645     -2.969924     -1.364831
  H       0.946746     -2.624828     -2.396607
  H       0.145875     -3.208297     -0.917747
  H       1.738053     -3.883906     -1.401628
  C       3.261524      1.628175     -0.101907
  H       4.070654      2.158797      0.427521
  H       2.995093      2.207585     -1.000851
  H       3.624398      0.641976     -0.426920
  H      -1.499416     -1.124073      3.053116
  H      -1.888694     -2.766481      2.444114
28
Coordinates from ORCA-job Ni_Fe_triplet_min E -4822.316944584192
  Fe     -2.165233      0.917279      0.518323
  Ni      0.504683     -0.078348      0.070165
  S      -1.404543     -1.249529      0.627877
  S      -0.945089      0.844995     -1.428898
  C      -1.215819     -1.874337      2.344060
  H      -0.168736     -2.179918      2.470196
  C      -0.292433      2.497686     -1.867921
  H       0.295076      2.385608     -2.791875
  H       0.342876      2.872684     -1.056285
  H      -1.128713      3.192139     -2.020912
  C      -3.696850      0.638796     -0.143579
  O      -4.747863      0.437712     -0.630102
  C      -2.779632      0.902199      2.301464
  N      -3.111406      0.869544      3.433080
  C      -2.386582      2.791881      0.421655
  N      -2.536738      3.957685      0.328097
  S       1.988902     -1.678507     -0.443940
  S       1.834523      1.414435      1.020339
  C       1.079459     -2.948871     -1.397129
  H       0.834287     -2.582473     -2.406839
  H       0.135483     -3.201724     -0.893370
  H       1.698034     -3.856826     -1.493083
  C       3.284261      1.641690     -0.077766
  H       4.097455      2.145141      0.471329
  H       3.022580      2.257295     -0.953651
  H       3.637687      0.664889     -0.439277
  H      -1.488616     -1.096646      3.068467
  H      -1.877800     -2.742431      2.486254
28
Coordinates from ORCA-job Ni_Fe_triplet_min E -4822.317195408422
  Fe     -2.177570      0.901436      0.513147
  Ni      0.515563     -0.077189      0.096656
  S      -1.388787     -1.248954      0.671862
  S      -0.941615      0.809388     -1.414962
  C      -1.201910     -1.835989      2.400023
  H      -0.157279     -2.147431      2.533481
  C      -0.294942      2.457693     -1.874317
  H       0.311614      2.328957     -2.783539
  H       0.319312      2.859831     -1.059046
  H      -1.133653      3.141316     -2.061679
  C      -3.706739      0.594825     -0.140382
  O      -4.758264      0.362932     -0.612748
  C      -2.795359      0.916884      2.297218
  N      -3.136985      0.902340      3.426194
  C      -2.422495      2.771648      0.383282
  N      -2.584754      3.932743      0.256607
  S       1.986493     -1.662561     -0.483637
  S       1.857462      1.404148      1.043488
  C       1.057438     -2.886194     -1.478151
  H       0.783874     -2.465409     -2.458515
  H       0.127934     -3.168685     -0.963693
  H       1.675787     -3.785094     -1.638966
  C       3.323997      1.610527     -0.035132
  H       4.143295      2.080380      0.533806
  H       3.091267      2.249153     -0.902639
  H       3.652966      0.629689     -0.408782
  H      -1.466573     -1.040222      3.107523
  H      -1.870826     -2.694113      2.569581
28
Coordinates from ORCA-job Ni_Fe_triplet_min E -4822.317455194753
  Fe     -2.181851      0.885751      0.501215
  Ni      0.529965     -0.082830      0.118174
  S      -1.373760     -1.251828      0.696011
  S      -0.923200      0.788875     -1.408905
  C      -1.196101     -1.814918      2.431180
  H      -0.159451     -2.149975      2.571684
  C      -0.283657      2.439002     -1.868632
  H       0.342502      2.311832     -2.764335
  H       0.305504      2.855119     -1.042013
  H      -1.125351      3.112412     -2.079475
  C      -3.709452      0.558879     -0.144907
  O      -4.762044      0.305916     -0.605033
  C      -2.806626      0.924855      2.286159
  N      -3.160090      0.923899      3.411423
  C      -2.440703      2.754549      0.346593
  N      -2.610515      3.911788      0.196566
  S       1.986981     -1.654580     -0.525855
  S       1.897718      1.372106      1.077356
  C       1.028423     -2.858735     -1.515493
  H       0.694570     -2.409975     -2.463671
  H       0.135444     -3.181862     -0.961925
  H       1.656756     -3.737249     -1.739367
  C       3.345938      1.611297     -0.016115
  H       4.186666      2.024089      0.565331
  H       3.112149      2.309201     -0.836393
  H       3.641857      0.647976     -0.457184
  H      -1.438164     -0.999894      3.124453
  H      -1.884256     -2.653649      2.619839
28
Coordinates from ORCA-job Ni_Fe_triplet_min E -4822.317657220729
  Fe     -2.194251      0.871884      0.491581
  Ni      0.535510     -0.074445      0.144165
  S      -1.358605     -1.248237      0.721597
  S      -0.912652      0.779858     -1.404735
  C      -1.193015     -1.790450      2.462976
  H      -0.170295     -2.166887      2.604173
  C      -0.301027      2.437270     -1.870538
  H       0.342050      2.322383     -2.755669
  H       0.267823      2.865997     -1.035986
  H      -1.153141      3.092865     -2.094074
  C      -3.717790      0.511657     -0.142128
  O      -4.770867      0.231530     -0.586085
  C      -2.823512      0.936329      2.278087
  N      -3.188743      0.950080      3.399303
  C      -2.475515      2.738300      0.311824
  N      -2.657781      3.890425      0.139163
  S       1.991551     -1.629660     -0.543717
  S       1.937594      1.367336      1.094204
  C       1.021978     -2.807893     -1.552412
  H       0.651086     -2.329281     -2.471241
  H       0.155085     -3.175042     -0.985051
  H       1.662348     -3.662902     -1.828487
  C       3.390666      1.565646      0.002388
  H       4.244417      1.950276      0.583925
  H       3.175905      2.273443     -0.814750
  H       3.656291      0.595059     -0.442539
  H      -1.393920     -0.954561      3.143809
  H      -1.911938     -2.598930      2.666897
28
Coordinates from ORCA-job Ni_Fe_triplet_min E -4822.317743493700
  Fe     -2.192147      0.863790      0.491024
  Ni      0.544526     -0.086634      0.163685
  S      -1.353204     -1.252741      0.738312
  S      -0.895730      0.767077     -1.398022
  C      -1.205451     -1.786018      2.484740
  H      -0.198407     -2.202274      2.626742
  C      -0.289301      2.426527     -1.867755
  H       0.354247      2.316463     -2.753076
  H       0.278786      2.854363     -1.032667
  H      -1.143790      3.079413     -2.088414
  C      -3.714645      0.497271     -0.138919
  O      -4.769514      0.217001     -0.578507
  C      -2.829623      0.939520      2.275446
  N      -3.203237      0.960257      3.393761
  C      -2.470946      2.730664      0.296106
  N      -2.654244      3.881673      0.117736
  S       1.994307     -1.640940     -0.545974
  S       1.965042      1.339174      1.121017
  C       1.019590     -2.798296     -1.572693
  H       0.658740     -2.309942     -2.490471
  H       0.147308     -3.166582     -1.014339
  H       1.656847     -3.654997     -1.851344
  C       3.387755      1.579717     -0.001776
  H       4.257567      1.946785      0.567409
  H       3.146616      2.315081     -0.786514
  H       3.643867      0.627416     -0.489689
  H      -1.370769     -0.936926      3.158272
  H      -1.954941     -2.564789      2.692590
28
Coordinates from ORCA-job Ni_Fe_triplet_min E -4822.317811162884
  Fe     -2.195022      0.860051      0.491599
  Ni      0.551167     -0.083315      0.176955
  S      -1.344722     -1.250432      0.744867
  S      -0.886846      0.767418     -1.392352
  C      -1.214404     -1.782641      2.494497
  H      -0.226012     -2.243344      2.630061
  C      -0.290669      2.429842     -1.868434
  H       0.345766      2.322501     -2.759348
  H       0.287694      2.856221     -1.039680
  H      -1.149227      3.080503     -2.077749
  C      -3.714360      0.482449     -0.137306
  O      -4.769562      0.199183     -0.573769
  C      -2.840238      0.934077      2.273036
  N      -3.222475      0.954270      3.388437
  C      -2.478638      2.726328      0.292149
  N      -2.667316      3.876565      0.114831
  S       2.002507     -1.633076     -0.547045
  S       1.983694      1.340188      1.127717
  C       1.024900     -2.785685     -1.575835
  H       0.668550     -2.295674     -2.494789
  H       0.149092     -3.150467     -1.020587
  H       1.659066     -3.644942     -1.853681
  C       3.398264      1.572334     -0.008246
  H       4.275860      1.938304      0.549835
  H       3.151300      2.306388     -0.792416
  H       3.647597      0.618622     -0.496880
  H      -1.339413     -0.926538      3.167234
  H      -1.997301     -2.527081      2.703575
28
Coordinates from ORCA-job Ni_Fe_triplet_min E -4822.317871904206
  Fe     -2.195967      0.856538      0.494108
  Ni      0.561381     -0.083402      0.191399
  S      -1.335446     -1.248652      0.752697
  S      -0.875813      0.762942     -1.383815
  C      -1.226106     -1.780159      2.505736
  H      -0.265323     -2.298194      2.631737
  C      -0.282516      2.425463     -1.867750
  H       0.342969      2.313919     -2.765965
  H       0.310155      2.850939     -1.048579
  H      -1.142412      3.077599     -2.065754
  C      -3.712358      0.471091     -0.135748
  O      -4.768083      0.188856     -0.571221
  C      -2.850112      0.925552      2.271155
  N      -3.241056      0.943256      3.383604
  C      -2.483001      2.721595      0.289260
  N      -2.677667      3.871367      0.115611
  S       2.011194     -1.630371     -0.550288
  S       2.000507      1.339451      1.136883
  C       1.029027     -2.776739     -1.581386
  H       0.673317     -2.281564     -2.498183
  H       0.150900     -3.137953     -1.027374
  H       1.657807     -3.638116     -1.864359
  C       3.401279      1.577713     -0.016592
  H       4.285983      1.944579      0.529788
  H       3.142447      2.313411     -0.795385
  H       3.647491      0.626443     -0.511368
  H      -1.297732     -0.918409      3.178421
  H      -2.051613     -2.475105      2.720049
28
Coordinates from ORCA-job Ni_Fe_triplet_min E -4822.317914605206
  Fe     -2.197223      0.853869      0.495389
  Ni      0.570417     -0.081947      0.202545
  S      -1.326842     -1.246052      0.756967
  S      -0.866536      0.760410     -1.376937
  C      -1.234634     -1.778254      2.511229
  H      -0.309229     -2.359748      2.624625
  C      -0.274173      2.422450     -1.864283
  H       0.344337      2.306599     -2.766779
  H       0.326751      2.848645     -1.051281
  H      -1.134675      3.075585     -2.056568
  C      -3.710814      0.461397     -0.136336
  O      -4.766369      0.178896     -0.572026
  C      -2.857657      0.916671      2.268912
  N      -3.254900      0.930622      3.379193
  C      -2.490607      2.717134      0.287176
  N      -2.692114      3.866330      0.117398
  S       2.018905     -1.627267     -0.552615
  S       2.012867      1.344097      1.140525
  C       1.032054     -2.770398     -1.582649
  H       0.668496     -2.269034     -2.493094
  H       0.157096     -3.133585     -1.024828
  H       1.657641     -3.630140     -1.876850
  C       3.403933      1.582803     -0.025212
  H       4.292160      1.953058      0.513176
  H       3.137974      2.316216     -0.803759
  H       3.648495      0.630664     -0.518998
  H      -1.241906     -0.914149      3.184237
  H      -2.104198     -2.412826      2.737523
28
Coordinates from ORCA-job Ni_Fe_triplet_min E -4822.317952270914
  Fe     -2.197540      0.851216      0.495783
  Ni      0.578795     -0.082690      0.211355
  S      -1.319608     -1.244371      0.760136
  S      -0.857346      0.757656     -1.371135
  C      -1.241302     -1.776225      2.514217
  H      -0.360074     -2.425065      2.614475
  C      -0.264459      2.419257     -1.857045
  H       0.353753      2.301153     -2.759396
  H       0.336117      2.847353     -1.044584
  H      -1.125077      3.072117     -2.050714
  C      -3.708495      0.453987     -0.139411
  O      -4.763123      0.171182     -0.577350
  C      -2.862390      0.908210      2.266500
  N      -3.263579      0.918069      3.375399
  C      -2.498248      2.712363      0.285075
  N      -2.706036      3.860987      0.118665
  S       2.024859     -1.629397     -0.551813
  S       2.022164      1.348037      1.141629
  C       1.033825     -2.767628     -1.583110
  H       0.664495     -2.259467     -2.487381
  H       0.161425     -3.133007     -1.022636
  H       1.656359     -3.626004     -1.887198
  C       3.402835      1.591164     -0.035172
  H       4.293066      1.965065      0.497310
  H       3.129517      2.323060     -0.812588
  H       3.646721      0.638827     -0.528814
  H      -1.174052     -0.913623      3.185574
  H      -2.153349     -2.340178      2.758907
28
Coordinates from ORCA-job Ni_Fe_triplet_min E -4822.317999687975
  Fe     -2.198072      0.846805      0.494445
  Ni      0.588107     -0.085659      0.219145
  S      -1.311774     -1.243743      0.764820
  S      -0.847076      0.754024     -1.365270
  C      -1.245340     -1.770284      2.518665
  H      -0.423048     -2.494225      2.606931
  C      -0.254684      2.416546     -1.844299
  H       0.372107      2.300243     -2.740853
  H       0.334718      2.848311     -1.025529
  H      -1.115690      3.066300     -2.047756
  C      -3.705522      0.444869     -0.147045
  O      -4.757770      0.160005     -0.589636
  C      -2.867565      0.898601      2.262348
  N      -3.272037      0.904071      3.370061
  C      -2.509133      2.705033      0.281058
  N      -2.723570      3.852772      0.116481
  S       2.030005     -1.635198     -0.551107
  S       2.031186      1.350417      1.140495
  C       1.033376     -2.765034     -1.586155
  H       0.659728     -2.248603     -2.483740
  H       0.163551     -3.133543     -1.023674
  H       1.652779     -3.622064     -1.900139
  C       3.401501      1.599200     -0.046139
  H       4.293347      1.974868      0.482231
  H       3.121880      2.331166     -0.821241
  H       3.643560      0.647080     -0.541059
  H      -1.086433     -0.914288      3.182920
  H      -2.198879     -2.245622      2.790722
28
Coordinates from ORCA-job Ni_Fe_triplet_min E -4822.318040948700
  Fe     -2.198436      0.840495      0.491069
  Ni      0.598638     -0.090972      0.225632
  S      -1.303183     -1.244569      0.768729
  S      -0.834163      0.753282     -1.359470
  C      -1.248381     -1.761537      2.522982
  H      -0.504631     -2.567426      2.601811
  C      -0.244646      2.419608     -1.824582
  H       0.398128      2.311862     -2.710769
  H       0.325086      2.853897     -0.993382
  H      -1.106393      3.063989     -2.042369
  C      -3.700712      0.434438     -0.160997
  O      -4.748708      0.146198     -0.611584
  C      -2.875160      0.885264      2.255429
  N      -3.283926      0.884693      3.361554
  C      -2.521715      2.695689      0.278026
  N      -2.741940      3.842656      0.115296
  S       2.035564     -1.644983     -0.549263
  S       2.042561      1.349601      1.136846
  C       1.031664     -2.766785     -1.586027
  H       0.656116     -2.244837     -2.479368
  H       0.163894     -3.136893     -1.021410
  H       1.648164     -3.623893     -1.905689
  C       3.398871      1.608027     -0.062726
  H       4.293885      1.984305      0.459636
  H       3.109755      2.342067     -0.832393
  H       3.637839      0.657831     -0.562818
  H      -0.979930     -0.922924      3.174089
  H      -2.238991     -2.127034      2.828426
28
Coordinates from ORCA-job Ni_Fe_triplet_min E -4822.318068705064
  Fe     -2.197858      0.837851      0.488594
  Ni      0.602197     -0.094698      0.224076
  S      -1.300968     -1.246412      0.766750
  S      -0.828573      0.758454     -1.358386
  C      -1.247996     -1.758265      2.521778
  H      -0.537972     -2.594450      2.599371
  C      -0.241289      2.428802     -1.811675
  H       0.411857      2.330286     -2.691361
  H       0.316655      2.860940     -0.971544
  H      -1.103279      3.070591     -2.035879
  C      -3.696814      0.433090     -0.171888
  O      -4.741474      0.143752     -0.629384
  C      -2.879743      0.877219      2.251045
  N      -3.290588      0.872468      3.356389
  C      -2.525354      2.692487      0.280958
  N      -2.745105      3.839783      0.119878
  S       2.037297     -1.652829     -0.546286
  S       2.046245      1.346742      1.131846
  C       1.030588     -2.775766     -1.579222
  H       0.658867     -2.258029     -2.476524
  H       0.161464     -3.141802     -1.014100
  H       1.646323     -3.636006     -1.892280
  C       3.394774      1.612862     -0.074802
  H       4.291350      1.991640      0.442988
  H       3.097818      2.347118     -0.841311
  H       3.634349      0.664658     -0.578397
  H      -0.934045     -0.929385      3.165344
  H      -2.249476     -2.079051      2.840703
28
Coordinates from ORCA-job Ni_Fe_triplet_min E -4822.318087152897
  Fe     -2.198509      0.830555      0.485541
  Ni      0.610597     -0.101178      0.228445
  S      -1.294750     -1.249576      0.771386
  S      -0.817477      0.762002     -1.352442
  C      -1.248598     -1.748777      2.530460
  H      -0.602429     -2.635576      2.607354
  C      -0.234890      2.438307     -1.792778
  H       0.428295      2.351091     -2.666196
  H       0.312475      2.867034     -0.944176
  H      -1.097904      3.076901     -2.021377
  C      -3.690860      0.423334     -0.187175
  O      -4.730357      0.129979     -0.653578
  C      -2.893428      0.864791      2.243306
  N      -3.312311      0.856152      3.345586
  C      -2.533176      2.683965      0.280674
  N      -2.752963      3.831108      0.118720
  S       2.041451     -1.660982     -0.547544
  S       2.059163      1.338335      1.130663
  C       1.028860     -2.779772     -1.579326
  H       0.663692     -2.264180     -2.480581
  H       0.156499     -3.139795     -1.015415
  H       1.641607     -3.644422     -1.886522
  C       3.392313      1.617208     -0.090879
  H       4.293803      1.998599      0.416382
  H       3.080691      2.353280     -0.849823
  H       3.631100      0.673248     -0.602736
  H      -0.857874     -0.941708      3.159587
  H      -2.265773     -1.987874      2.869121
28
Coordinates from ORCA-job Ni_Fe_triplet_min E -4822.318099535598
  Fe     -2.199339      0.832068      0.485927
  Ni      0.605661     -0.100549      0.220626
  S      -1.299404     -1.251016      0.768471
  S      -0.823973      0.767121     -1.355370
  C      -1.242391     -1.748999      2.529307
  H      -0.557234     -2.605386      2.611036
  C      -0.239780      2.443981     -1.795071
  H       0.419183      2.357387     -2.671801
  H       0.313878      2.868398     -0.948447
  H      -1.102336      3.085207     -2.017292
  C      -3.691871      0.428432     -0.187912
  O      -4.730785      0.135867     -0.655943
  C      -2.895071      0.867061      2.244489
  N      -3.313228      0.859661      3.347060
  C      -2.530071      2.687001      0.284508
  N      -2.745319      3.834802      0.121420
  S       2.037602     -1.659569     -0.550326
  S       2.052361      1.335940      1.128810
  C       1.028126     -2.785088     -1.577953
  H       0.666975     -2.276946     -2.485182
  H       0.153325     -3.140687     -1.015063
  H       1.642297     -3.651905     -1.876172
  C       3.392752      1.611661     -0.086223
  H       4.291823      1.995862      0.423313
  H       3.083499      2.344744     -0.848998
  H       3.636018      0.666898     -0.594482
  H      -0.892822     -0.924405      3.160070
  H      -2.250625     -2.035492      2.857878
28
Coordinates from ORCA-job Ni_Fe_triplet_min E -4822.318109138898
  Fe     -2.200386      0.830874      0.486312
  Ni      0.607030     -0.100293      0.221466
  S      -1.298193     -1.251019      0.769428
  S      -0.823119      0.768448     -1.353837
  C      -1.242273     -1.746298      2.531592
  H      -0.564977     -2.608983      2.611931
  C      -0.238117      2.445191     -1.793574
  H       0.416370      2.357148     -2.673509
  H       0.321146      2.867809     -0.949660
  H      -1.100686      3.088071     -2.010824
  C      -3.691410      0.425455     -0.189122
  O      -4.729573      0.132242     -0.658443
  C      -2.899487      0.864164      2.243995
  N      -3.320112      0.856227      3.345591
  C      -2.532772      2.685723      0.284618
  N      -2.748758      3.833391      0.121622
  S       2.038310     -1.658101     -0.553193
  S       2.055088      1.335364      1.129818
  C       1.028470     -2.784794     -1.579090
  H       0.664361     -2.276439     -2.485090
  H       0.154958     -3.141068     -1.014581
  H       1.642516     -3.650788     -1.879753
  C       3.393855      1.610809     -0.087202
  H       4.293374      1.996344      0.420610
  H       3.083077      2.342886     -0.850296
  H       3.637581      0.665793     -0.594736
  H      -0.884197     -0.924142      3.160441
  H      -2.252822     -2.021964      2.862165
28
Coordinates from ORCA-job Ni_Fe_triplet_min E -4822.318122763765
  Fe     -2.203340      0.826910      0.487036
  Ni      0.611156     -0.101288      0.221152
  S      -1.295249     -1.251985      0.773793
  S      -0.821935      0.770846     -1.349809
  C      -1.237423     -1.735814      2.540098
  H      -0.581324     -2.614754      2.618886
  C      -0.235204      2.447598     -1.787929
  H       0.411556      2.357041     -2.673254
  H       0.333421      2.866373     -0.948179
  H      -1.097707      3.093460     -1.996411
  C      -3.689305      0.417541     -0.194799
  O      -4.724306      0.122535     -0.670102
  C      -2.913223      0.856157      2.241903
  N      -3.340592      0.847217      3.340826
  C      -2.540950      2.681223      0.283848
  N      -2.758136      3.828506      0.119799
  S       2.038394     -1.656808     -0.563848
  S       2.060423      1.331852      1.132369
  C       1.026705     -2.784442     -1.586572
  H       0.658497     -2.275731     -2.490844
  H       0.154687     -3.139946     -1.019171
  H       1.638996     -3.650290     -1.890834
  C       3.397115      1.608018     -0.086751
  H       4.296454      1.996755      0.419063
  H       3.083789      2.337966     -0.850787
  H       3.643064      0.662743     -0.592669
  H      -0.853809     -0.918549      3.159871
  H      -2.252503     -1.981085      2.879996
28
Coordinates from ORCA-job Ni_Fe_triplet_min E -4822.318126911558
  Fe     -2.204540      0.826370      0.487238
  Ni      0.611723     -0.101141      0.219657
  S      -1.295095     -1.251930      0.774810
  S      -0.822686      0.772100     -1.349100
  C      -1.233595     -1.732390      2.541892
  H      -0.576836     -2.610815      2.620636
  C      -0.235799      2.448624     -1.786826
  H       0.409758      2.357462     -2.672932
  H       0.334038      2.866829     -0.947573
  H      -1.098334      3.094887     -1.994061
  C      -3.688675      0.415270     -0.197054
  O      -4.722328      0.119420     -0.674806
  C      -2.917731      0.854596      2.241515
  N      -3.347068      0.845709      3.339652
  C      -2.544027      2.680574      0.283481
  N      -2.761581      3.827706      0.118892
  S       2.037118     -1.656544     -0.567199
  S       2.061398      1.330864      1.132833
  C       1.024720     -2.784427     -1.588835
  H       0.655161     -2.275458     -2.492402
  H       0.153413     -3.139954     -1.020315
  H       1.636448     -3.650284     -1.894115
  C       3.399377      1.605713     -0.084894
  H       4.298107      1.994362      0.422075
  H       3.087632      2.335275     -0.849939
  H       3.645501      0.659898     -0.589710
  H      -0.849006     -0.913584      3.159054
  H      -2.247843     -1.977082      2.884705
28
Coordinates from ORCA-job Ni_Fe_triplet_min E -4822.318134017964
  Fe     -2.206608      0.825182      0.487534
  Ni      0.613978     -0.101742      0.217477
  S      -1.294305     -1.251635      0.778184
  S      -0.822832      0.773519     -1.346948
  C      -1.225043     -1.724881      2.546416
  H      -0.568054     -2.603085      2.625778
  C      -0.237429      2.450066     -1.784022
  H       0.408951      2.359296     -2.669508
  H       0.330903      2.868680     -0.943935
  H      -1.100465      3.095479     -1.992035
  C      -3.686057      0.409252     -0.203009
  O      -4.716229      0.110946     -0.686731
  C      -2.927826      0.851648      2.240031
  N      -3.362170      0.843057      3.336164
  C      -2.550527      2.678959      0.282008
  N      -2.769075      3.825705      0.116135
  S       2.034049     -1.658372     -0.572729
  S       2.065683      1.327374      1.134672
  C       1.018542     -2.783432     -1.594234
  H       0.648704     -2.272388     -2.496447
  H       0.147518     -3.138088     -1.024677
  H       1.627860     -3.650418     -1.901096
  C       3.404785      1.601602     -0.081419
  H       4.303175      1.987977      0.427848
  H       3.096021      2.332529     -0.846386
  H       3.649541      0.655721     -0.586772
  H      -0.836498     -0.903483      3.157828
  H      -2.237341     -1.967417      2.896551
28
Coordinates from ORCA-job Ni_Fe_triplet_min E -4822.318137114147
  Fe     -2.207252      0.824825      0.487705
  Ni      0.615879     -0.102073      0.217469
  S      -1.293305     -1.250979      0.780326
  S      -0.821775      0.773554     -1.345396
  C      -1.221704     -1.721575      2.548767
  H      -0.564655     -2.599704      2.628899
  C      -0.238390      2.450535     -1.782812
  H       0.409510      2.360957     -2.667309
  H       0.327922      2.870349     -0.941980
  H      -1.102032      3.094654     -1.992333
  C      -3.683947      0.405309     -0.206268
  O      -4.712120      0.105097     -0.692981
  C      -2.932662      0.850396      2.238926
  N      -3.369952      0.841736      3.333875
  C      -2.553707      2.678208      0.281234
  N      -2.773248      3.824719      0.115101
  S       2.032819     -1.660160     -0.573919
  S       2.069633      1.325536      1.135958
  C       1.014606     -2.781956     -1.596367
  H       0.645249     -2.268755     -2.497503
  H       0.143505     -3.136226     -1.026687
  H       1.622241     -3.649649     -1.904630
  C       3.408296      1.599818     -0.080592
  H       4.307340      1.984114      0.429060
  H       3.100544      2.332261     -0.844538
  H       3.651270      0.654266     -0.587415
  H      -0.831652     -0.899485      3.158416
  H      -2.233163     -1.963723      2.901670
28
Coordinates from ORCA-job Ni_Fe_triplet_min E -4822.318139976493
  Fe     -2.207571      0.824546      0.487969
  Ni      0.618635     -0.102289      0.218628
  S      -1.291439     -1.249803      0.783151
  S      -0.819708      0.772750     -1.343306
  C      -1.219889     -1.718437      2.551781
  H      -0.563038     -2.596639      2.633395
  C      -0.239081      2.450496     -1.781864
  H       0.409951      2.362620     -2.665735
  H       0.325663      2.872023     -0.940867
  H      -1.103616      3.093021     -1.992540
  C      -3.681191      0.400182     -0.209380
  O      -4.707187      0.097128     -0.698794
  C      -2.937086      0.849379      2.237504
  N      -3.377586      0.840358      3.331162
  C      -2.557058      2.677230      0.280263
  N      -2.778274      3.823417      0.114158
  S       2.032174     -1.662247     -0.574278
  S       2.075219      1.323761      1.137727
  C       1.010214     -2.779143     -1.598521
  H       0.641120     -2.262596     -2.497808
  H       0.139191     -3.133495     -1.028805
  H       1.615934     -3.647198     -1.909615
  C       3.412649      1.598124     -0.080469
  H       4.313138      1.979856      0.428532
  H       3.105150      2.332531     -0.842646
  H       3.653126      0.653151     -0.589547
  H      -0.829146     -0.896206      3.160896
  H      -2.231045     -1.960469      2.905688
28
Coordinates from ORCA-job Ni_Fe_triplet_min E -4822.318141671124
  Fe     -2.207752      0.824413      0.488156
  Ni      0.620690     -0.102007      0.219747
  S      -1.289652     -1.248649      0.785195
  S      -0.818152      0.772055     -1.341871
  C      -1.219864     -1.716430      2.554084
  H      -0.563061     -2.594570      2.637137
  C      -0.239222      2.450413     -1.781322
  H       0.409121      2.363659     -2.665844
  H       0.326062      2.872723     -0.941096
  H      -1.104447      3.092245     -1.991251
  C      -3.679356      0.396162     -0.210969
  O      -4.703893      0.090407     -0.701681
  C      -2.939327      0.849024      2.236485
  N      -3.381642      0.839496      3.329413
  C      -2.559751      2.676359      0.279407
  N      -2.782620      3.822242      0.113409
  S       2.032255     -1.663129     -0.574521
  S       2.079287      1.323087      1.138838
  C       1.007585     -2.776604     -1.599933
  H       0.637731     -2.257504     -2.497427
  H       0.137100     -3.131648     -1.029862
  H       1.612314     -3.644273     -1.914049
  C       3.416009      1.596652     -0.080658
  H       4.317754      1.976714      0.427377
  H       3.108442      2.332183     -0.841717
  H       3.654687      0.651907     -0.590985
  H      -0.829728     -0.894226      3.163639
  H      -2.231321     -1.958653      2.906981
28
Coordinates from ORCA-job Ni_Fe_triplet_min E -4822.318143008834
  Fe     -2.208174      0.824261      0.488259
  Ni      0.622350     -0.101295      0.220472
  S      -1.287793     -1.247390      0.787113
  S      -0.817167      0.771642     -1.340831
  C      -1.220174     -1.714382      2.556431
  H      -0.563186     -2.592251      2.640963
  C      -0.239192      2.450491     -1.780681
  H       0.406971      2.364499     -2.666890
  H       0.328191      2.872683     -0.941812
  H      -1.105018      3.092301     -1.988224
  C      -3.678102      0.392151     -0.211891
  O      -4.701315      0.083212     -0.703341
  C      -2.940866      0.849186      2.235600
  N      -3.384281      0.839146      3.328089
  C      -2.562978      2.675295      0.278122
  N      -2.787696      3.820796      0.111942
  S       2.032527     -1.663175     -0.575463
  S       2.082559      1.322911      1.139558
  C       1.005684     -2.774052     -1.601604
  H       0.634376     -2.252847     -2.497285
  H       0.136043     -3.130091     -1.030894
  H       1.609870     -3.640936     -1.918903
  C       3.419364      1.594666     -0.080500
  H       4.322222      1.973078      0.426820
  H       3.112183      2.331072     -0.840847
  H       3.656368      0.649867     -0.591488
  H      -0.831335     -0.891933      3.166448
  H      -2.232180     -1.956857      2.907515
