28
Coordinates from ORCA-job NiFe_hydrogenase_singlet_min E -4822.338776316642
  Fe     -2.272110      1.041593      0.474683
  Ni      0.513723      0.166498     -0.021229
  S      -1.370733     -1.017805      0.031814
  S      -0.818816      1.512803     -1.187211
  C      -1.432798     -2.124100      1.495949
  H      -0.450619     -2.100893      1.988278
  C      -0.355370      3.277265     -1.312799
  H      -0.522011      3.596860     -2.352520
  H       0.713416      3.349363     -1.053829
  H      -0.964632      3.875654     -0.624019
  C      -3.763874      0.926220     -0.302881
  O      -4.794075      0.838467     -0.865748
  C      -3.012939      0.513072      2.134930
  N      -3.472476      0.153038      3.159854
  C      -2.562036      2.856002      0.921753
  N      -2.736287      3.996064      1.168466
  S       1.932997     -1.402821      0.664601
  S       2.242526      1.588495      0.112013
  C       1.426082     -3.013666     -0.060760
  H       1.178658     -2.911253     -1.126929
  H       0.562838     -3.464505      0.451078
  H       2.283769     -3.700508      0.035042
  C       3.402112      1.053530     -1.191730
  H       4.342586      1.618722     -1.074991
  H       3.003479      1.246369     -2.201473
  H       3.607195     -0.023191     -1.081567
  H      -2.208480     -1.765761      2.184426
  H      -1.662875     -3.143461      1.151476
28
Coordinates from ORCA-job NiFe_hydrogenase_singlet_min E -4822.338678650494
  Fe     -2.286527      1.048212      0.483959
  Ni      0.497222      0.170730     -0.022035
  S      -1.386659     -1.013644      0.050094
  S      -0.842313      1.509687     -1.188444
  C      -1.440428     -2.106268      1.524583
  H      -0.459107     -2.069664      2.017982
  C      -0.378594      3.273082     -1.326001
  H      -0.535132      3.582435     -2.370143
  H       0.687339      3.346373     -1.056857
  H      -0.994199      3.877685     -0.648436
  C      -3.782492      0.927457     -0.284677
  O      -4.815703      0.835774     -0.841326
  C      -3.017880      0.530489      2.151758
  N      -3.471648      0.177153      3.181547
  C      -2.574446      2.865369      0.921005
  N      -2.747462      4.006948      1.161327
  S       1.919835     -1.395920      0.662431
  S       2.226438      1.594078      0.093913
  C       1.466939     -2.989810     -0.133234
  H       1.284665     -2.861277     -1.209635
  H       0.576912     -3.457882      0.312946
  H       2.321207     -3.675067     -0.003105
  C       3.419066      0.999849     -1.153022
  H       4.353919      1.575742     -1.044178
  H       3.043143      1.137708     -2.180248
  H       3.626194     -0.068598     -0.982288
  H      -2.219583     -1.747875      2.208945
  H      -1.661455     -3.130715      1.189818
28
Coordinates from ORCA-job NiFe_hydrogenase_singlet_min E -4822.338795393793
  Fe     -2.278652      1.042800      0.479417
  Ni      0.506784      0.175259     -0.035253
  S      -1.373881     -1.014443      0.033761
  S      -0.838439      1.515929     -1.193115
  C      -1.419912     -2.114080      1.503056
  H      -0.437864     -2.075215      1.995055
  C      -0.378562      3.280914     -1.322687
  H      -0.527103      3.591928     -2.367325
  H       0.684751      3.355072     -1.044333
  H      -1.001023      3.882299     -0.648563
  C      -3.775610      0.921902     -0.287264
  O      -4.809508      0.830229     -0.842611
  C      -3.005673      0.515311      2.146015
  N      -3.456781      0.155996      3.174887
  C      -2.570369      2.857103      0.925690
  N      -2.745684      3.997084      1.171747
  S       1.930306     -1.394097      0.640578
  S       2.232534      1.602595      0.088567
  C       1.422512     -2.999565     -0.096310
  H       1.240614     -2.903797     -1.176205
  H       0.519146     -3.422151      0.368547
  H       2.254427     -3.707288      0.055732
  C       3.426742      1.023603     -1.163980
  H       4.358481      1.604167     -1.053187
  H       3.048131      1.165882     -2.189537
  H       3.639773     -0.044803     -1.000311
  H      -2.199410     -1.762661      2.190519
  H      -1.636479     -3.137923      1.163790
28
Coordinates from ORCA-job NiFe_hydrogenase_singlet_min E -4822.338523825043
  Fe     -2.262409      1.032868      0.475221
  Ni      0.522422      0.138659      0.004834
  S      -1.369700     -1.034093      0.049659
  S      -0.793067      1.487806     -1.177003
  C      -1.444726     -2.128413      1.521707
  H      -0.464758     -2.107291      2.019093
  C      -0.314053      3.248060     -1.305186
  H      -0.441284      3.556115     -2.353464
  H       0.745276      3.312224     -1.009512
  H      -0.941988      3.857807     -0.643719
  C      -3.748857      0.923125     -0.313281
  O      -4.775197      0.839092     -0.883683
  C      -3.018769      0.517886      2.132608
  N      -3.488465      0.166419      3.155862
  C      -2.543895      2.851263      0.911322
  N      -2.712070      3.993678      1.151022
  S       1.915314     -1.445227      0.709705
  S       2.258633      1.550913      0.161255
  C       1.419071     -3.038544     -0.059086
  H       1.304286     -2.938599     -1.148019
  H       0.480938     -3.441769      0.350116
  H       2.225400     -3.763885      0.141041
  C       3.361793      1.130764     -1.230923
  H       4.309646      1.681526     -1.104472
  H       2.922826      1.413102     -2.201887
  H       3.562873      0.047837     -1.224628
  H      -2.221136     -1.760275      2.203908
  H      -1.678854     -3.149000      1.184192
28
Coordinates from ORCA-job NiFe_hydrogenase_singlet_min E -4822.338843606536
  Fe     -2.276571      1.039958      0.480348
  Ni      0.508698      0.163932     -0.021952
  S      -1.375523     -1.020836      0.043222
  S      -0.829067      1.504772     -1.188239
  C      -1.427221     -2.116292      1.515383
  H      -0.439952     -2.093983      1.998201
  C      -0.362674      3.268088     -1.320630
  H      -0.496717      3.574193     -2.368700
  H       0.697584      3.339771     -1.029330
  H      -0.991675      3.874171     -0.656825
  C      -3.771164      0.920987     -0.291239
  O      -4.803372      0.830616     -0.849968
  C      -3.010682      0.519500      2.145994
  N      -3.466461      0.164656      3.174369
  C      -2.564699      2.856375      0.920345
  N      -2.737397      3.997628      1.162372
  S       1.921251     -1.410510      0.664515
  S       2.237065      1.587807      0.111867
  C       1.426344     -3.006691     -0.099088
  H       1.296967     -2.906784     -1.186421
  H       0.496583     -3.416980      0.321666
  H       2.240411     -3.726397      0.090047
  C       3.410818      1.051267     -1.178548
  H       4.346096      1.624610     -1.060689
  H       3.017433      1.232150     -2.192404
  H       3.622091     -0.023073     -1.057532
  H      -2.194116     -1.749841      2.209196
  H      -1.664798     -3.137048      1.180718
28
Coordinates from ORCA-job NiFe_hydrogenase_singlet_min E -4822.338864893566
  Fe     -2.281587      1.041671      0.483594
  Ni      0.503097      0.169415     -0.029204
  S      -1.379151     -1.018383      0.045417
  S      -0.842188      1.505627     -1.192244
  C      -1.420483     -2.112703      1.518787
  H      -0.426459     -2.098327      1.988204
  C      -0.378857      3.269476     -1.330431
  H      -0.514299      3.572144     -2.379302
  H       0.681762      3.343391     -1.040938
  H      -1.008051      3.876199     -0.667385
  C      -3.779458      0.919007     -0.281031
  O      -4.814040      0.826109     -0.834944
  C      -3.007281      0.523437      2.153562
  N      -3.457939      0.170053      3.184698
  C      -2.570338      2.858542      0.921347
  N      -2.743413      4.000064      1.161837
  S       1.918519     -1.403324      0.654997
  S       2.229238      1.596700      0.098713
  C       1.429801     -2.995210     -0.120349
  H       1.328558     -2.894914     -1.210758
  H       0.486306     -3.397151      0.277099
  H       2.232839     -3.721731      0.089139
  C       3.425578      1.030515     -1.157790
  H       4.362163      1.599717     -1.030528
  H       3.054311      1.196471     -2.182440
  H       3.626647     -0.043059     -1.013950
  H      -2.175151     -1.739966      2.222595
  H      -1.670874     -3.131718      1.187986
28
Coordinates from ORCA-job NiFe_hydrogenase_singlet_min E -4822.338883024133
  Fe     -2.284397      1.041804      0.486359
  Ni      0.499563      0.169817     -0.031799
  S      -1.382389     -1.018803      0.049324
  S      -0.849687      1.502405     -1.194460
  C      -1.416536     -2.111879      1.523855
  H      -0.414277     -2.112592      1.976209
  C      -0.386676      3.266147     -1.338288
  H      -0.520769      3.565051     -2.388407
  H       0.673818      3.341061     -1.048512
  H      -1.016649      3.874565     -0.677564
  C      -3.784433      0.916969     -0.273665
  O      -4.820588      0.822637     -0.824387
  C      -3.004953      0.527438      2.159656
  N      -3.452588      0.176545      3.192961
  C      -2.572118      2.859722      0.920511
  N      -2.744377      4.001880      1.158560
  S       1.912537     -1.404075      0.654670
  S       2.224390      1.599140      0.095459
  C       1.429538     -2.988747     -0.137241
  H       1.367054     -2.887652     -1.230689
  H       0.467438     -3.376962      0.227573
  H       2.214868     -3.726389      0.099242
  C       3.434526      1.025429     -1.144431
  H       4.367413      1.600129     -1.014928
  H       3.071663      1.179038     -2.174082
  H       3.638842     -0.045643     -0.987220
  H      -2.153805     -1.727868      2.239985
  H      -1.688157     -3.127118      1.197987
28
Coordinates from ORCA-job NiFe_hydrogenase_singlet_min E -4822.338908556038
  Fe     -2.289175      1.041263      0.491297
  Ni      0.493348      0.169366     -0.036858
  S      -1.388519     -1.020777      0.057249
  S      -0.863746      1.493842     -1.199728
  C      -1.408953     -2.112180      1.533406
  H      -0.389451     -2.150535      1.945061
  C      -0.401500      3.257252     -1.355967
  H      -0.537421      3.549307     -2.407833
  H       0.660006      3.334504     -1.070311
  H      -1.030230      3.868792     -0.697024
  C      -3.793620      0.911834     -0.259191
  O      -4.832989      0.814567     -0.803302
  C      -2.999200      0.535343      2.171422
  N      -3.440568      0.189829      3.209228
  C      -2.574413      2.861580      0.917180
  N      -2.744691      4.005198      1.149595
  S       1.899522     -1.407174      0.658046
  S       2.214401      1.603926      0.089362
  C       1.426448     -2.976190     -0.166842
  H       1.428087     -2.870793     -1.262090
  H       0.435678     -3.340064      0.141347
  H       2.178805     -3.734250      0.109747
  C       3.453007      1.020952     -1.117992
  H       4.383496      1.594800     -0.969250
  H       3.115442      1.169771     -2.156921
  H       3.651116     -0.049578     -0.949815
  H      -2.103736     -1.702214      2.277226
  H      -1.731894     -3.116321      1.219634
28
Coordinates from ORCA-job NiFe_hydrogenase_singlet_min E -4822.338918014128
  Fe     -2.290599      1.041135      0.492880
  Ni      0.491416      0.169058     -0.039169
  S      -1.390935     -1.021427      0.059874
  S      -0.868629      1.490539     -1.201971
  C      -1.408501     -2.112314      1.536414
  H      -0.384206     -2.162403      1.934936
  C      -0.407049      3.253751     -1.362800
  H      -0.548573      3.544574     -2.414281
  H       0.655924      3.331841     -1.083207
  H      -1.032376      3.866005     -0.701322
  C      -3.796812      0.910079     -0.253766
  O      -4.837459      0.811814     -0.795226
  C      -2.996387      0.537819      2.175453
  N      -3.435079      0.193895      3.214909
  C      -2.574710      2.862293      0.915994
  N      -2.744128      4.006423      1.146489
  S       1.894775     -1.408523      0.660391
  S       2.209993      1.606735      0.084162
  C       1.425319     -2.971780     -0.176987
  H       1.436722     -2.860777     -1.271624
  H       0.430123     -3.332950      0.120498
  H       2.172190     -3.734361      0.101985
  C       3.461745      1.019375     -1.107517
  H       4.389278      1.596408     -0.952833
  H       3.134292      1.161395     -2.150671
  H       3.660828     -0.049591     -0.930906
  H      -2.089842     -1.694766      2.288397
  H      -1.748072     -3.112196      1.226579
28
Coordinates from ORCA-job NiFe_hydrogenase_singlet_min E -4822.338933180954
  Fe     -2.293139      1.041549      0.496028
  Ni      0.487897      0.169488     -0.045109
  S      -1.395681     -1.021625      0.064035
  S      -0.878531      1.485502     -1.206558
  C      -1.409296     -2.112028      1.540767
  H      -0.379437     -2.173411      1.923256
  C      -0.419517      3.248370     -1.376208
  H      -0.576822      3.537921     -2.425811
  H       0.647148      3.328094     -1.112362
  H      -1.035582      3.861611     -0.707028
  C      -3.803117      0.907492     -0.242397
  O      -4.846470      0.807335     -0.778233
  C      -2.989773      0.541949      2.183277
  N      -3.422469      0.200182      3.225932
  C      -2.575171      2.863987      0.915140
  N      -2.743085      4.008892      1.142822
  S       1.887059     -1.409419      0.663835
  S       2.200467      1.614397      0.067312
  C       1.424499     -2.963177     -0.195055
  H       1.445723     -2.840286     -1.288124
  H       0.424699     -3.323431      0.089193
  H       2.165856     -3.731657      0.082029
  C       3.480108      1.013010     -1.087325
  H       4.403461      1.592211     -0.916605
  H       3.178153      1.143364     -2.139667
  H       3.675160     -0.053721     -0.893842
  H      -2.075725     -1.687747      2.302201
  H      -1.767165     -3.106799      1.235175
28
Coordinates from ORCA-job NiFe_hydrogenase_singlet_min E -4822.338942646109
  Fe     -2.294680      1.042672      0.498319
  Ni      0.485570      0.170931     -0.050701
  S      -1.399129     -1.020455      0.065085
  S      -0.885717      1.483968     -1.209781
  C      -1.410623     -2.112310      1.540572
  H      -0.379211     -2.174606      1.918773
  C      -0.429623      3.246757     -1.385365
  H      -0.602330      3.536486     -2.432507
  H       0.640445      3.327277     -1.136382
  H      -1.036589      3.860217     -0.708093
  C      -3.807538      0.907252     -0.233874
  O      -4.852948      0.806155     -0.765505
  C      -2.984349      0.543976      2.188537
  N      -3.412315      0.202592      3.233262
  C      -2.575187      2.865544      0.916627
  N      -2.742120      4.010715      1.143685
  S       1.882839     -1.408315      0.665049
  S       2.193387      1.621174      0.050174
  C       1.424558     -2.957686     -0.204371
  H       1.448942     -2.828202     -1.296525
  H       0.423494     -3.318815      0.074657
  H       2.164500     -3.728262      0.070459
  C       3.493626      1.006027     -1.073942
  H       4.413351      1.588036     -0.893495
  H       3.210714      1.123530     -2.133093
  H       3.685836     -0.058081     -0.864173
  H      -2.074200     -1.688715      2.304850
  H      -1.771454     -3.105811      1.234440
28
Coordinates from ORCA-job NiFe_hydrogenase_singlet_min E -4822.338955420606
  Fe     -2.297406      1.045185      0.502444
  Ni      0.481207      0.173827     -0.060543
  S      -1.405349     -1.017659      0.065626
  S      -0.898018      1.482923     -1.214718
  C      -1.412583     -2.113213      1.538096
  H      -0.379484     -2.176008      1.911887
  C      -0.446970      3.245709     -1.399775
  H      -0.645886      3.535979     -2.442106
  H       0.628598      3.326684     -1.176438
  H      -1.037794      3.859404     -0.708544
  C      -3.815052      0.908551     -0.219398
  O      -4.863869      0.806416     -0.744093
  C      -2.975610      0.547116      2.197265
  N      -3.395706      0.205785      3.245191
  C      -2.575080      2.868500      0.920785
  N      -2.740293      4.013930      1.147781
  S       1.876068     -1.405302      0.666436
  S       2.182018      1.631405      0.019568
  C       1.426921     -2.948940     -0.217693
  H       1.469090     -2.813792     -1.308576
  H       0.419843     -3.306480      0.043783
  H       2.158795     -3.724312      0.065036
  C       3.513983      0.992794     -1.053496
  H       4.427874      1.579314     -0.858696
  H       3.261723      1.088073     -2.122597
  H       3.700211     -0.066538     -0.816445
  H      -2.073208     -1.691818      2.306165
  H      -1.774771     -3.105486      1.229738
28
Coordinates from ORCA-job NiFe_hydrogenase_singlet_min E -4822.338970890371
  Fe     -2.301257      1.048965      0.508223
  Ni      0.474489      0.177624     -0.074845
  S      -1.414713     -1.013470      0.064938
  S      -0.915367      1.482243     -1.221471
  C      -1.415546     -2.115375      1.532212
  H      -0.379720     -2.183582      1.898043
  C      -0.470730      3.245055     -1.418977
  H      -0.708223      3.537115     -2.452684
  H       0.612175      3.325085     -1.234690
  H      -1.035964      3.858724     -0.706631
  C      -3.825510      0.912038     -0.199247
  O      -4.879021      0.809210     -0.714342
  C      -2.963724      0.551252      2.209120
  N      -3.372939      0.209628      3.261239
  C      -2.574222      2.872778      0.927580
  N      -2.736630      4.018483      1.155209
  S       1.866147     -1.400446      0.668863
  S       2.166707      1.643255     -0.025118
  C       1.432382     -2.937437     -0.233249
  H       1.509943     -2.799235     -1.321904
  H       0.414288     -3.285627     -0.004073
  H       2.147756     -3.720503      0.069893
  C       3.539671      0.974891     -1.026632
  H       4.444371      1.569561     -0.814634
  H       3.328338      1.037682     -2.106992
  H       3.717972     -0.076439     -0.751547
  H      -2.068449     -1.694617      2.307272
  H      -1.782973     -3.104809      1.221120
28
Coordinates from ORCA-job NiFe_hydrogenase_singlet_min E -4822.338995662744
  Fe     -2.307361      1.054630      0.517397
  Ni      0.462465      0.181348     -0.097603
  S      -1.430982     -1.007952      0.063907
  S      -0.943031      1.479841     -1.232272
  C      -1.421383     -2.119111      1.523272
  H      -0.380445     -2.201161      1.872608
  C      -0.505970      3.242233     -1.448401
  H      -0.804489      3.538309     -2.464944
  H       0.586062      3.318254     -1.328594
  H      -1.026618      3.856001     -0.702992
  C      -3.841911      0.918974     -0.167230
  O      -4.902767      0.816085     -0.667040
  C      -2.945266      0.558709      2.227871
  N      -3.337498      0.217379      3.286511
  C      -2.571058      2.879636      0.937668
  N      -2.727880      4.025985      1.165928
  S       1.848625     -1.393926      0.673839
  S       2.143116      1.655952     -0.097616
  C       1.444494     -2.919851     -0.258066
  H       1.592277     -2.780571     -1.339572
  H       0.407346     -3.247628     -0.093150
  H       2.124425     -3.717514      0.086041
  C       3.575290      0.949708     -0.984804
  H       4.463087      1.560284     -0.748402
  H       3.427056      0.961410     -2.077425
  H       3.741324     -0.086659     -0.652101
  H      -2.056792     -1.695721      2.311409
  H      -1.802863     -3.102592      1.210441
28
Coordinates from ORCA-job NiFe_hydrogenase_singlet_min E -4822.339024653892
  Fe     -2.312970      1.059715      0.525828
  Ni      0.449731      0.183128     -0.119901
  S      -1.447585     -1.003582      0.062073
  S      -0.969391      1.477122     -1.242809
  C      -1.428599     -2.123285      1.513753
  H      -0.383280     -2.219496      1.847333
  C      -0.537110      3.238804     -1.474398
  H      -0.893590      3.540677     -2.470265
  H       0.560284      3.308816     -1.418573
  H      -1.011017      3.852217     -0.698285
  C      -3.857104      0.927495     -0.137051
  O      -4.924843      0.825879     -0.622279
  C      -2.927892      0.565979      2.245128
  N      -3.304127      0.225197      3.309710
  C      -2.565905      2.886091      0.946969
  N      -2.716208      4.033161      1.175942
  S       1.830430     -1.387881      0.679672
  S       2.121409      1.661825     -0.171466
  C       1.459150     -2.903797     -0.279525
  H       1.679158     -2.766394     -1.349338
  H       0.406971     -3.210340     -0.182240
  H       2.099877     -3.715296      0.105293
  C       3.604482      0.927967     -0.946744
  H       4.473424      1.557784     -0.691940
  H       3.514690      0.888786     -2.045156
  H       3.759691     -0.090696     -0.559221
  H      -2.046610     -1.696814      2.314044
  H      -1.823815     -3.101012      1.200126
28
Coordinates from ORCA-job NiFe_hydrogenase_singlet_min E -4822.339068962600
  Fe     -2.319522      1.063008      0.530216
  Ni      0.437674      0.189418     -0.138448
  S      -1.459262     -0.998551      0.053678
  S      -0.990893      1.482665     -1.250297
  C      -1.435861     -2.126662      1.497216
  H      -0.391202     -2.224410      1.833459
  C      -0.559689      3.245319     -1.481496
  H      -0.970109      3.561292     -2.451686
  H       0.539495      3.306992     -1.488732
  H      -0.985024      3.851833     -0.672855
  C      -3.869614      0.938494     -0.119339
  O      -4.941687      0.840340     -0.595706
  C      -2.920176      0.566084      2.253878
  N      -3.285544      0.222480      3.321304
  C      -2.563739      2.889409      0.956629
  N      -2.708968      4.036296      1.189691
  S       1.812771     -1.372805      0.692685
  S       2.108869      1.659589     -0.243948
  C       1.480168     -2.888507     -0.278198
  H       1.764947     -2.762007     -1.334750
  H       0.420395     -3.182725     -0.241454
  H       2.088513     -3.704438      0.147934
  C       3.621579      0.899921     -0.933400
  H       4.477791      1.547022     -0.679436
  H       3.567755      0.810906     -2.031329
  H       3.768992     -0.099627     -0.496418
  H      -2.054090     -1.704050      2.299467
  H      -1.824318     -3.105238      1.178017
28
Coordinates from ORCA-job NiFe_hydrogenase_singlet_min E -4822.339112344496
  Fe     -2.323902      1.065263      0.534320
  Ni      0.426767      0.192552     -0.157691
  S      -1.470580     -0.995780      0.046962
  S      -1.010809      1.484192     -1.259486
  C      -1.446355     -2.131535      1.483390
  H      -0.401488     -2.232231      1.818956
  C      -0.579046      3.246614     -1.492943
  H      -1.043246      3.576869     -2.433648
  H       0.518019      3.300507     -1.564610
  H      -0.952611      3.846926     -0.654904
  C      -3.880304      0.948466     -0.100740
  O      -4.957095      0.854397     -0.567287
  C      -2.909651      0.566349      2.262650
  N      -3.263994      0.220905      3.333179
  C      -2.557580      2.892096      0.965048
  N      -2.696407      4.039096      1.201402
  S       1.797122     -1.360508      0.703128
  S       2.095530      1.655084     -0.316571
  C       1.496580     -2.873595     -0.279942
  H       1.817691     -2.747693     -1.326335
  H       0.435168     -3.164556     -0.279895
  H       2.087996     -3.691671      0.165533
  C       3.639328      0.879923     -0.914546
  H       4.479098      1.547938     -0.660144
  H       3.625690      0.741096     -2.008563
  H       3.780372     -0.097396     -0.428300
  H      -2.063172     -1.712403      2.288576
  H      -1.833875     -3.108856      1.159141
28
Coordinates from ORCA-job NiFe_hydrogenase_singlet_min E -4822.339184943472
  Fe     -2.328181      1.060038      0.527986
  Ni      0.423216      0.207584     -0.170599
  S      -1.463128     -0.994132      0.031907
  S      -1.020447      1.497232     -1.266406
  C      -1.446780     -2.130922      1.466940
  H      -0.408461     -2.209468      1.827708
  C      -0.582944      3.261977     -1.472669
  H      -1.080593      3.617828     -2.386521
  H       0.510370      3.311083     -1.587570
  H      -0.920087      3.844111     -0.607293
  C      -3.883966      0.951744     -0.109364
  O      -4.960798      0.862538     -0.576996
  C      -2.915718      0.550184      2.253225
  N      -3.269884      0.198146      3.321671
  C      -2.560467      2.884659      0.969140
  N      -2.698451      4.030121      1.213276
  S       1.786868     -1.331893      0.719032
  S       2.100841      1.650283     -0.371516
  C       1.503670     -2.856759     -0.248726
  H       1.807816     -2.735691     -1.300697
  H       0.447748     -3.167010     -0.232046
  H       2.115797     -3.660531      0.194692
  C       3.645390      0.851313     -0.934160
  H       4.484329      1.528172     -0.701287
  H       3.634737      0.673384     -2.022421
  H       3.784208     -0.108167     -0.413115
  H      -2.091273     -1.726741      2.257857
  H      -1.804560     -3.117032      1.134632
28
Coordinates from ORCA-job NiFe_hydrogenase_singlet_min E -4822.339279924395
  Fe     -2.331040      1.060883      0.535071
  Ni      0.410760      0.202020     -0.189067
  S      -1.477608     -0.997113      0.035808
  S      -1.042627      1.485628     -1.278263
  C      -1.457921     -2.136943      1.468315
  H      -0.413002     -2.229537      1.807026
  C      -0.599356      3.246722     -1.497734
  H      -1.132700      3.609904     -2.388402
  H       0.488180      3.288805     -1.658157
  H      -0.896526      3.830253     -0.618821
  C      -3.894794      0.958520     -0.083191
  O      -4.977820      0.873876     -0.537281
  C      -2.900593      0.557992      2.268122
  N      -3.242971      0.210550      3.341903
  C      -2.547889      2.887883      0.974607
  N      -2.675764      4.034737      1.217668
  S       1.766855     -1.331697      0.725208
  S       2.082893      1.640330     -0.441243
  C       1.513761     -2.838024     -0.278241
  H       1.857750     -2.700977     -1.315494
  H       0.454422     -3.135948     -0.307317
  H       2.100009     -3.656625      0.172757
  C       3.664654      0.844715     -0.894964
  H       4.478815      1.550424     -0.659737
  H       3.706362      0.613311     -1.972320
  H       3.798278     -0.084535     -0.320878
  H      -2.082989     -1.728014      2.272146
  H      -1.839889     -3.115091      1.139157
28
Coordinates from ORCA-job NiFe_hydrogenase_singlet_min E -4822.339384476469
  Fe     -2.330204      1.060614      0.541025
  Ni      0.402851      0.195785     -0.204622
  S      -1.486591     -1.001542      0.041894
  S      -1.061566      1.469670     -1.290249
  C      -1.464470     -2.142697      1.474055
  H      -0.413760     -2.240561      1.792804
  C      -0.611921      3.225735     -1.524670
  H      -1.168049      3.594517     -2.399181
  H       0.471002      3.262551     -1.714236
  H      -0.881378      3.814417     -0.639958
  C      -3.900821      0.962570     -0.060588
  O      -4.989475      0.883229     -0.502108
  C      -2.885729      0.566314      2.280635
  N      -3.220148      0.225614      3.359079
  C      -2.531963      2.889402      0.980640
  N      -2.649497      4.037411      1.223395
  S       1.747498     -1.335505      0.730425
  S       2.067584      1.632630     -0.510927
  C       1.513172     -2.819989     -0.311312
  H       1.857956     -2.651330     -1.343172
  H       0.454445     -3.120232     -0.351055
  H       2.100601     -3.648669      0.119017
  C       3.680719      0.844145     -0.852545
  H       4.469897      1.576914     -0.614759
  H       3.778134      0.560863     -1.913819
  H       3.803481     -0.052779     -0.227366
  H      -2.076386     -1.733693      2.287818
  H      -1.866129     -3.113334      1.146460
28
Coordinates from ORCA-job NiFe_hydrogenase_singlet_min E -4822.339469217996
  Fe     -2.329968      1.061639      0.545415
  Ni      0.393218      0.191056     -0.223038
  S      -1.497250     -1.003268      0.041532
  S      -1.079667      1.461239     -1.301611
  C      -1.474715     -2.147180      1.471302
  H      -0.422666     -2.248283      1.784909
  C      -0.626337      3.214832     -1.542942
  H      -1.217147      3.595106     -2.389287
  H       0.447510      3.246495     -1.778930
  H      -0.853317      3.800628     -0.644472
  C      -3.906774      0.972209     -0.041130
  O      -5.000330      0.899533     -0.471622
  C      -2.872861      0.570962      2.289905
  N      -3.199429      0.233097      3.371629
  C      -2.515942      2.891593      0.987365
  N      -2.623227      4.040235      1.231770
  S       1.733869     -1.332088      0.731491
  S       2.053235      1.618386     -0.585136
  C       1.524786     -2.807013     -0.329263
  H       1.882580     -2.623624     -1.354168
  H       0.468015     -3.112094     -0.386552
  H       2.110724     -3.637449      0.099660
  C       3.689065      0.837634     -0.821192
  H       4.457564      1.591173     -0.580796
  H       3.836915      0.510850     -1.864000
  H       3.795413     -0.030935     -0.154564
  H      -2.082046     -1.737903      2.288443
  H      -1.881964     -3.114782      1.141963
28
Coordinates from ORCA-job NiFe_hydrogenase_singlet_min E -4822.339399915264
  Fe     -2.320451      1.058433      0.541281
  Ni      0.404370      0.200452     -0.228552
  S      -1.476449     -1.002443      0.044994
  S      -1.088132      1.451269     -1.309771
  C      -1.447780     -2.133166      1.487367
  H      -0.397376     -2.219067      1.808684
  C      -0.644655      3.205867     -1.546274
  H      -1.218284      3.586562     -2.403980
  H       0.434821      3.251414     -1.756845
  H      -0.892554      3.792965     -0.653483
  C      -3.896278      0.964974     -0.050082
  O      -4.990051      0.896206     -0.480534
  C      -2.874974      0.572143      2.282896
  N      -3.215675      0.241919      3.362620
  C      -2.504986      2.886100      0.992942
  N      -2.609551      4.033675      1.243150
  S       1.730179     -1.325423      0.722224
  S       2.054754      1.637793     -0.641632
  C       1.511312     -2.793527     -0.354432
  H       1.819511     -2.574838     -1.388252
  H       0.463804     -3.134251     -0.369806
  H       2.142084     -3.609850      0.036267
  C       3.678989      0.814441     -0.797597
  H       4.456778      1.544258     -0.517537
  H       3.870382      0.479960     -1.831002
  H       3.728845     -0.060126     -0.131833
  H      -2.064163     -1.718761      2.295570
  H      -1.845220     -3.104928      1.160297
28
Coordinates from ORCA-job NiFe_hydrogenase_singlet_min E -4822.339655226867
  Fe     -2.323441      1.062376      0.549424
  Ni      0.386659      0.186653     -0.247501
  S      -1.503266     -1.004803      0.039387
  S      -1.102603      1.448622     -1.317204
  C      -1.479978     -2.149991      1.468301
  H      -0.429387     -2.252878      1.785808
  C      -0.649979      3.200557     -1.564458
  H      -1.277786      3.594693     -2.376951
  H       0.411594      3.232017     -1.851445
  H      -0.828436      3.781467     -0.651964
  C      -3.907055      0.985119     -0.021556
  O      -5.006159      0.923563     -0.439450
  C      -2.857271      0.576111      2.297668
  N      -3.181179      0.243124      3.381706
  C      -2.487291      2.892361      1.000022
  N      -2.579683      4.040996      1.250271
  S       1.716975     -1.329154      0.726329
  S       2.036566      1.600114     -0.706429
  C       1.530416     -2.795794     -0.352244
  H       1.880955     -2.587772     -1.375069
  H       0.480594     -3.124404     -0.407413
  H       2.137282     -3.617144      0.064999
  C       3.694358      0.832480     -0.778261
  H       4.436479      1.606474     -0.521028
  H       3.922324      0.453590     -1.788756
  H       3.760865     -0.003186     -0.066067
  H      -2.087031     -1.736540      2.283770
  H      -1.885273     -3.116601      1.134792
28
Coordinates from ORCA-job NiFe_hydrogenase_singlet_min E -4822.339729215449
  Fe     -2.322143      1.062574      0.552769
  Ni      0.377297      0.181176     -0.263941
  S      -1.513158     -1.007211      0.036069
  S      -1.117737      1.443119     -1.326605
  C      -1.490230     -2.155944      1.461506
  H      -0.440025     -2.262471      1.779653
  C      -0.658784      3.193245     -1.575056
  H      -1.316366      3.600729     -2.356839
  H       0.389600      3.219306     -1.906915
  H      -0.793465      3.766825     -0.650784
  C      -3.910476      0.996685     -0.006499
  O      -5.013197      0.942657     -0.415905
  C      -2.846899      0.578256      2.304373
  N      -3.165430      0.246426      3.390376
  C      -2.469818      2.893293      1.006216
  N      -2.551833      4.042188      1.258849
  S       1.703118     -1.327189      0.726589
  S       2.025487      1.574493     -0.779934
  C       1.538993     -2.790213     -0.358934
  H       1.908810     -2.579376     -1.374297
  H       0.490747     -3.119774     -0.434415
  H       2.139234     -3.611558      0.067865
  C       3.697973      0.836003     -0.758433
  H       4.417364      1.632767     -0.506613
  H       3.968745      0.420580     -1.743742
  H       3.752522      0.029687     -0.012376
  H      -2.095695     -1.742386      2.278034
  H      -1.895385     -3.121837      1.125665
28
Coordinates from ORCA-job NiFe_hydrogenase_singlet_min E -4822.339792957740
  Fe     -2.321092      1.062198      0.554432
  Ni      0.368555      0.178929     -0.277950
  S      -1.520689     -1.008455      0.030219
  S      -1.131536      1.441995     -1.334815
  C      -1.498900     -2.160241      1.452293
  H      -0.450673     -2.265414      1.777695
  C      -0.664894      3.191280     -1.577313
  H      -1.345374      3.613106     -2.331556
  H       0.370891      3.213710     -1.946303
  H      -0.761801      3.753305     -0.641820
  C      -3.912480      1.008811      0.002044
  O      -5.017477      0.962491     -0.402203
  C      -2.841646      0.577116      2.307390
  N      -3.158721      0.244343      3.393571
  C      -2.454145      2.892912      1.012693
  N      -2.526786      4.041532      1.269445
  S       1.691449     -1.319598      0.727179
  S       2.016229      1.548348     -0.851437
  C       1.549786     -2.785712     -0.355169
  H       1.927553     -2.576159     -1.367710
  H       0.505385     -3.125152     -0.439326
  H       2.153743     -3.599548      0.080762
  C       3.697102      0.836195     -0.750776
  H       4.399535      1.649228     -0.503842
  H       4.002941      0.390440     -1.712364
  H       3.737375      0.054906      0.022180
  H      -2.109736     -1.749784      2.266258
  H      -1.895344     -3.128732      1.113103
28
Coordinates from ORCA-job NiFe_hydrogenase_singlet_min E -4822.339832720961
  Fe     -2.319767      1.061764      0.556035
  Ni      0.360784      0.177677     -0.288180
  S      -1.526584     -1.010074      0.026169
  S      -1.144528      1.439732     -1.342281
  C      -1.505707     -2.164305      1.445649
  H      -0.458530     -2.264475      1.776069
  C      -0.669804      3.187375     -1.580640
  H      -1.366411      3.621869     -2.312661
  H       0.355840      3.206532     -1.976973
  H      -0.736978      3.740235     -0.637367
  C      -3.913573      1.019681      0.008792
  O      -5.020388      0.980857     -0.391285
  C      -2.838017      0.576165      2.309790
  N      -3.155576      0.242783      3.395657
  C      -2.438924      2.892061      1.020122
  N      -2.502414      4.040166      1.281530
  S       1.677388     -1.311373      0.733712
  S       2.009366      1.520143     -0.918345
  C       1.559594     -2.777130     -0.351281
  H       1.938844     -2.561728     -1.362041
  H       0.519763     -3.129650     -0.440463
  H       2.171654     -3.583804      0.086572
  C       3.694950      0.833572     -0.746088
  H       4.379884      1.659270     -0.492645
  H       4.037853      0.370672     -1.686936
  H       3.717828      0.068253      0.043405
  H      -2.123045     -1.759423      2.257502
  H      -1.894252     -3.134794      1.102862
28
Coordinates from ORCA-job NiFe_hydrogenase_singlet_min E -4822.339861585427
  Fe     -2.320754      1.061327      0.556642
  Ni      0.354175      0.179154     -0.291041
  S      -1.531481     -1.009745      0.023087
  S      -1.153405      1.441717     -1.345738
  C      -1.511369     -2.164664      1.441220
  H      -0.465623     -2.258069      1.778261
  C      -0.671892      3.189009     -1.576112
  H      -1.369756      3.630299     -2.302845
  H       0.351956      3.206051     -1.976976
  H      -0.731833      3.734763     -0.628456
  C      -3.914971      1.027924      0.008973
  O      -5.021890      0.993818     -0.391226
  C      -2.840597      0.573024      2.309629
  N      -3.161368      0.236794      3.393682
  C      -2.431555      2.890956      1.025774
  N      -2.489541      4.038363      1.291521
  S       1.668844     -1.299265      0.742762
  S       2.003640      1.501826     -0.958285
  C       1.575398     -2.767833     -0.339598
  H       1.966628     -2.554053     -1.346207
  H       0.539109     -3.127580     -0.442316
  H       2.186431     -3.569282      0.109066
  C       3.689236      0.823439     -0.758073
  H       4.366660      1.647644     -0.481245
  H       4.052870      0.370727     -1.696136
  H       3.696979      0.050007      0.024191
  H      -2.136926     -1.765678      2.249686
  H      -1.889712     -3.138624      1.096441
28
Coordinates from ORCA-job NiFe_hydrogenase_singlet_min E -4822.339903432171
  Fe     -2.320885      1.061845      0.559211
  Ni      0.346280      0.177710     -0.291249
  S      -1.539834     -1.010208      0.023832
  S      -1.163911      1.439483     -1.349387
  C      -1.520412     -2.166905      1.440142
  H      -0.473149     -2.261788      1.771966
  C      -0.675251      3.185076     -1.579342
  H      -1.366508      3.628165     -2.311217
  H       0.351841      3.198144     -1.972195
  H      -0.739588      3.730972     -0.631975
  C      -3.916272      1.037639      0.012912
  O      -5.023718      1.008856     -0.386182
  C      -2.840415      0.572697      2.312432
  N      -3.164409      0.234384      3.394869
  C      -2.420041      2.890976      1.033389
  N      -2.470153      4.037789      1.303305
  S       1.654113     -1.289978      0.760375
  S       1.996654      1.477708     -0.999734
  C       1.594221     -2.753105     -0.331637
  H       1.997551     -2.529326     -1.331558
  H       0.563058     -3.122374     -0.452578
  H       2.205703     -3.551872      0.121053
  C       3.683643      0.813194     -0.767844
  H       4.343874      1.631651     -0.437894
  H       4.082847      0.397628     -1.708717
  H       3.670665      0.012915     -0.012125
  H      -2.143528     -1.770036      2.251622
  H      -1.903126     -3.139189      1.095206
28
Coordinates from ORCA-job NiFe_hydrogenase_singlet_min E -4822.339960307541
  Fe     -2.320757      1.064314      0.565155
  Ni      0.334799      0.171850     -0.287887
  S      -1.555840     -1.010293      0.028164
  S      -1.176315      1.434506     -1.352347
  C      -1.539464     -2.171691      1.440514
  H      -0.489209     -2.280358      1.758157
  C      -0.680476      3.177519     -1.590030
  H      -1.355764      3.615031     -2.339855
  H       0.355066      3.184743     -1.960642
  H      -0.763080      3.731617     -0.648547
  C      -3.918279      1.051794      0.022652
  O      -5.026663      1.029300     -0.374115
  C      -2.836771      0.575663      2.320016
  N      -3.163406      0.234910      3.400871
  C      -2.403463      2.893255      1.043862
  N      -2.442533      4.039619      1.317579
  S       1.637521     -1.280998      0.785223
  S       1.984808      1.447067     -1.040235
  C       1.627349     -2.731842     -0.325210
  H       2.054884     -2.490643     -1.311304
  H       0.604055     -3.110811     -0.479942
  H       2.234238     -3.530472      0.133776
  C       3.674213      0.799511     -0.778722
  H       4.308067      1.599611     -0.363338
  H       4.119452      0.455540     -1.727785
  H       3.636679     -0.048812     -0.076196
  H      -2.148871     -1.771287      2.260748
  H      -1.940991     -3.136593      1.096119
28
Coordinates from ORCA-job NiFe_hydrogenase_singlet_min E -4822.340010349561
  Fe     -2.317824      1.067240      0.573093
  Ni      0.322277      0.159748     -0.290354
  S      -1.574656     -1.012783      0.033976
  S      -1.190932      1.423278     -1.357862
  C      -1.561226     -2.180336      1.441717
  H      -0.507244     -2.314136      1.736515
  C      -0.689228      3.162261     -1.611953
  H      -1.355318      3.592937     -2.373831
  H       0.350657      3.163763     -1.970651
  H      -0.781017      3.728416     -0.678080
  C      -3.919800      1.067276      0.042047
  O      -5.031034      1.052761     -0.346971
  C      -2.823249      0.583495      2.332560
  N      -3.147714      0.243931      3.414421
  C      -2.378967      2.896765      1.053350
  N      -2.403608      4.043283      1.328150
  S       1.616356     -1.282461      0.804912
  S       1.973039      1.405763     -1.087949
  C       1.656176     -2.710870     -0.335048
  H       2.112705     -2.443167     -1.301364
  H       0.641547     -3.094222     -0.530803
  H       2.254353     -3.515248      0.125364
  C       3.666306      0.794583     -0.767103
  H       4.262410      1.590397     -0.291820
  H       4.162136      0.498184     -1.706859
  H       3.612856     -0.077449     -0.093916
  H      -2.144765     -1.769530      2.275642
  H      -1.994985     -3.131829      1.099498
28
Coordinates from ORCA-job NiFe_hydrogenase_singlet_min E -4822.340058089030
  Fe     -2.314678      1.070314      0.582286
  Ni      0.306868      0.145827     -0.295630
  S      -1.596239     -1.015548      0.038374
  S      -1.206970      1.412175     -1.364599
  C      -1.590530     -2.191837      1.439438
  H      -0.535938     -2.352466      1.718037
  C      -0.699214      3.146661     -1.635206
  H      -1.357018      3.569896     -2.408567
  H       0.344032      3.143433     -1.984089
  H      -0.799171      3.725741     -0.709767
  C      -3.921904      1.086274      0.066435
  O      -5.036751      1.082194     -0.312371
  C      -2.806132      0.591772      2.347318
  N      -3.125999      0.253936      3.431085
  C      -2.350408      2.900312      1.063689
  N      -2.358157      4.046989      1.338907
  S       1.596780     -1.282550      0.821627
  S       1.960679      1.353466     -1.141421
  C       1.694018     -2.684110     -0.349242
  H       2.173165     -2.383409     -1.294647
  H       0.692398     -3.080007     -0.582648
  H       2.293118     -3.489159      0.108941
  C       3.654255      0.784602     -0.748573
  H       4.216027      1.589008     -0.246332
  H       4.190577      0.504945     -1.670486
  H       3.590384     -0.087204     -0.075688
  H      -2.150562     -1.770477      2.284145
  H      -2.053380     -3.128728      1.095663
28
Coordinates from ORCA-job NiFe_hydrogenase_singlet_min E -4822.340087295097
  Fe     -2.311348      1.068898      0.584971
  Ni      0.301653      0.133462     -0.303577
  S      -1.605442     -1.018270      0.040890
  S      -1.213166      1.403696     -1.368853
  C      -1.603043     -2.193265      1.443485
  H      -0.549396     -2.370257      1.715753
  C      -0.702462      3.136526     -1.642987
  H      -1.340573      3.549876     -2.438269
  H       0.349103      3.133712     -1.965829
  H      -0.827490      3.724722     -0.726309
  C      -3.921803      1.091971      0.079630
  O      -5.039043      1.092909     -0.292176
  C      -2.792397      0.595729      2.354320
  N      -3.107488      0.261102      3.440508
  C      -2.334722      2.900228      1.061888
  N      -2.334152      4.047855      1.333333
  S       1.584924     -1.295764      0.820836
  S       1.953552      1.335876     -1.159808
  C       1.704950     -2.679413     -0.368624
  H       2.202122     -2.362772     -1.299087
  H       0.708869     -3.073295     -0.626133
  H       2.297366     -3.489657      0.089387
  C       3.646470      0.790599     -0.731040
  H       4.198216      1.609155     -0.240187
  H       4.192244      0.496905     -1.642448
  H       3.582298     -0.064743     -0.038340
  H      -2.148417     -1.760172      2.291707
  H      -2.081574     -3.123566      1.103638
28
Coordinates from ORCA-job NiFe_hydrogenase_singlet_min E -4822.340125433378
  Fe     -2.311495      1.069491      0.590051
  Ni      0.287402      0.129789     -0.313074
  S      -1.617434     -1.019604      0.038576
  S      -1.228868      1.402753     -1.375788
  C      -1.621903     -2.200253      1.435973
  H      -0.571034     -2.377750      1.718027
  C      -0.709259      3.132797     -1.649587
  H      -1.331049      3.541838     -2.460308
  H       0.348059      3.127991     -1.953192
  H      -0.850231      3.725772     -0.738454
  C      -3.925412      1.107644      0.096653
  O      -5.045337      1.118450     -0.267011
  C      -2.782515      0.597327      2.362634
  N      -3.093823      0.263004      3.450041
  C      -2.316020      2.900323      1.069389
  N      -2.302870      4.047605      1.342118
  S       1.566833     -1.286304      0.830537
  S       1.948350      1.281499     -1.216184
  C       1.734743     -2.653861     -0.370525
  H       2.229855     -2.313910     -1.293516
  H       0.752104     -3.073391     -0.638608
  H       2.346745     -3.450752      0.085356
  C       3.635199      0.770807     -0.725514
  H       4.163608      1.606517     -0.237744
  H       4.207428      0.465259     -1.616431
  H       3.564076     -0.069831     -0.016121
  H      -2.173908     -1.770288      2.281321
  H      -2.093995     -3.130871      1.088060
28
Coordinates from ORCA-job NiFe_hydrogenase_singlet_min E -4822.340178182361
  Fe     -2.311060      1.069883      0.596038
  Ni      0.273175      0.118290     -0.322735
  S      -1.633412     -1.021529      0.039823
  S      -1.241687      1.398422     -1.380840
  C      -1.642908     -2.204826      1.434164
  H      -0.594100     -2.384119      1.722327
  C      -0.709769      3.124303     -1.657864
  H      -1.289759      3.517328     -2.506885
  H       0.361631      3.116147     -1.908245
  H      -0.895401      3.730771     -0.763653
  C      -3.928951      1.122517      0.117367
  O      -5.051889      1.142746     -0.236650
  C      -2.769062      0.601484      2.373046
  N      -3.074378      0.269237      3.462810
  C      -2.296513      2.900875      1.074067
  N      -2.270807      4.048418      1.345027
  S       1.549728     -1.291108      0.833583
  S       1.937607      1.235208     -1.259204
  C       1.760823     -2.639251     -0.381049
  H       2.259347     -2.277263     -1.293631
  H       0.789935     -3.075343     -0.665071
  H       2.383988     -3.428536      0.073180
  C       3.621037      0.766634     -0.718099
  H       4.117934      1.617746     -0.224030
  H       4.221896      0.466948     -1.592086
  H       3.551560     -0.070427     -0.004443
  H      -2.198789     -1.776568      2.277801
  H      -2.110927     -3.135935      1.081933
28
Coordinates from ORCA-job NiFe_hydrogenase_singlet_min E -4822.340258791683
  Fe     -2.310400      1.071105      0.603623
  Ni      0.258140      0.099249     -0.335314
  S      -1.653017     -1.023071      0.043552
  S      -1.251534      1.391917     -1.384268
  C      -1.665637     -2.206810      1.436145
  H      -0.618751     -2.380860      1.733700
  C      -0.704096      3.111796     -1.669993
  H      -1.214406      3.475889     -2.574743
  H       0.384798      3.100536     -1.832430
  H      -0.959834      3.740206     -0.808100
  C      -3.933366      1.138387      0.145582
  O      -5.060270      1.168948     -0.195063
  C      -2.750759      0.608896      2.386147
  N      -3.045536      0.281290      3.480206
  C      -2.276508      2.902423      1.077899
  N      -2.238502      4.050785      1.344191
  S       1.535227     -1.312241      0.824852
  S       1.922714      1.190715     -1.297719
  C       1.783791     -2.639230     -0.405110
  H       2.282252     -2.253813     -1.308196
  H       0.823029     -3.088891     -0.702586
  H       2.417501     -3.422970      0.044253
  C       3.601985      0.778624     -0.702212
  H       4.058333      1.656384     -0.216419
  H       4.235977      0.476057     -1.551992
  H       3.541911     -0.046951      0.025510
  H      -2.232121     -1.784050      2.275645
  H      -2.121669     -3.142269      1.079519
28
Coordinates from ORCA-job NiFe_hydrogenase_singlet_min E -4822.340303660424
  Fe     -2.310275      1.072859      0.609603
  Ni      0.242911      0.087048     -0.343587
  S      -1.670377     -1.023822      0.045194
  S      -1.265146      1.388289     -1.387993
  C      -1.683553     -2.209364      1.435519
  H      -0.636310     -2.388674      1.728639
  C      -0.705951      3.104259     -1.678042
  H      -1.159649      3.447047     -2.620302
  H       0.391433      3.093069     -1.771749
  H      -1.014030      3.746368     -0.843349
  C      -3.936762      1.154642      0.166065
  O      -5.066224      1.194903     -0.165031
  C      -2.738984      0.613438      2.395464
  N      -3.029254      0.287500      3.491222
  C      -2.257497      2.903640      1.083446
  N      -2.207294      4.051912      1.348265
  S       1.513481     -1.320414      0.829380
  S       1.912294      1.136263     -1.343149
  C       1.813145     -2.625111     -0.412764
  H       2.333239     -2.219153     -1.294556
  H       0.866142     -3.079278     -0.745618
  H       2.440951     -3.410053      0.042648
  C       3.585058      0.772920     -0.700546
  H       4.000310      1.660205     -0.196109
  H       4.253010      0.494190     -1.532451
  H       3.528309     -0.060249      0.019463
  H      -2.246366     -1.787151      2.277817
  H      -2.143361     -3.143233      1.079199
28
Coordinates from ORCA-job NiFe_hydrogenase_singlet_min E -4822.340322454470
  Fe     -2.312783      1.076967      0.611684
  Ni      0.238315      0.079570     -0.343457
  S      -1.678638     -1.019549      0.050215
  S      -1.266711      1.386784     -1.385782
  C      -1.685596     -2.201772      1.443784
  H      -0.634910     -2.387356      1.720368
  C      -0.706327      3.102537     -1.681270
  H      -1.111443      3.427125     -2.650848
  H       0.395077      3.095677     -1.714154
  H      -1.060736      3.752698     -0.870874
  C      -3.941055      1.158418      0.174351
  O      -5.071584      1.199345     -0.152838
  C      -2.737852      0.620892      2.398460
  N      -3.025837      0.298037      3.495699
  C      -2.260326      2.908420      1.081606
  N      -2.211292      4.057712      1.342146
  S       1.514297     -1.335035      0.818961
  S       1.904687      1.133000     -1.346877
  C       1.832089     -2.631707     -0.429467
  H       2.359868     -2.216126     -1.302449
  H       0.890736     -3.085895     -0.777767
  H       2.455508     -3.419783      0.026014
  C       3.573610      0.769500     -0.695523
  H       3.978053      1.651536     -0.174055
  H       4.254795      0.504913     -1.521464
  H       3.512068     -0.074845      0.011710
  H      -2.236463     -1.776305      2.292345
  H      -2.158298     -3.132708      1.096163
28
Coordinates from ORCA-job NiFe_hydrogenase_singlet_min E -4822.340342321469
  Fe     -2.309740      1.078709      0.619574
  Ni      0.220211      0.056731     -0.351295
  S      -1.703006     -1.024107      0.054409
  S      -1.278462      1.375523     -1.390831
  C      -1.721853     -2.213068      1.443146
  H      -0.672541     -2.427359      1.703241
  C      -0.703977      3.084988     -1.695115
  H      -1.069382      3.394054     -2.685420
  H       0.397823      3.077350     -1.684965
  H      -1.088728      3.749031     -0.910099
  C      -3.941807      1.179579      0.200352
  O      -5.075231      1.234534     -0.114579
  C      -2.721127      0.628330      2.410634
  N      -3.003031      0.309406      3.510623
  C      -2.230597      2.909804      1.086752
  N      -2.164789      4.059051      1.343895
  S       1.493090     -1.351711      0.824260
  S       1.893306      1.060806     -1.392425
  C       1.872473     -2.608816     -0.447757
  H       2.390942     -2.151971     -1.305288
  H       0.952587     -3.091000     -0.814463
  H       2.521590     -3.382343     -0.003251
  C       3.552126      0.769724     -0.680311
  H       3.918433      1.678289     -0.175942
  H       4.261350      0.500998     -1.480391
  H       3.493708     -0.049827      0.054806
  H      -2.248804     -1.776825      2.301169
  H      -2.225313     -3.127832      1.095951
28
Coordinates from ORCA-job NiFe_hydrogenase_singlet_min E -4822.340374724359
  Fe     -2.311452      1.078270      0.613934
  Ni      0.228220      0.063370     -0.349939
  S      -1.692825     -1.024272      0.053881
  S      -1.274452      1.376363     -1.390041
  C      -1.707069     -2.210071      1.446617
  H      -0.656257     -2.437113      1.689165
  C      -0.706304      3.088845     -1.687002
  H      -1.124881      3.423005     -2.647737
  H       0.393602      3.075607     -1.740120
  H      -1.043878      3.739251     -0.870217
  C      -3.941960      1.168805      0.186094
  O      -5.074178      1.217403     -0.133973
  C      -2.731132      0.627747      2.402987
  N      -3.016226      0.309194      3.502269
  C      -2.244624      2.910628      1.078962
  N      -2.187475      4.060391      1.335628
  S       1.497312     -1.349135      0.822246
  S       1.902271      1.086697     -1.373873
  C       1.858650     -2.615632     -0.445763
  H       2.384302     -2.170097     -1.304978
  H       0.932475     -3.086508     -0.811583
  H       2.496990     -3.396546      0.001506
  C       3.563944      0.770002     -0.678332
  H       3.952639      1.674628     -0.183067
  H       4.259228      0.484737     -1.484702
  H       3.497543     -0.042666      0.063306
  H      -2.213798     -1.764124      2.311782
  H      -2.231415     -3.116729      1.109630
28
Coordinates from ORCA-job NiFe_hydrogenase_singlet_min E -4822.340400564601
  Fe     -2.316047      1.080680      0.614780
  Ni      0.222336      0.059978     -0.348892
  S      -1.699251     -1.023217      0.058228
  S      -1.278593      1.375654     -1.389014
  C      -1.711625     -2.207065      1.452973
  H      -0.660737     -2.447785      1.680967
  C      -0.705496      3.086981     -1.685164
  H      -1.124702      3.423933     -2.644705
  H       0.394313      3.068496     -1.740606
  H      -1.039459      3.737088     -0.866695
  C      -3.946784      1.171562      0.187382
  O      -5.079065      1.220400     -0.132229
  C      -2.737062      0.632364      2.403856
  N      -3.022486      0.315284      3.503486
  C      -2.249532      2.913654      1.077449
  N      -2.193855      4.063816      1.332676
  S       1.494020     -1.352943      0.819352
  S       1.898545      1.075498     -1.379423
  C       1.879432     -2.607709     -0.452951
  H       2.423200     -2.155190     -1.297275
  H       0.960913     -3.074558     -0.842843
  H       2.507516     -3.393574      0.000159
  C       3.558224      0.758395     -0.679423
  H       3.941925      1.658409     -0.171979
  H       4.258412      0.484466     -1.485446
  H       3.489537     -0.062488      0.053360
  H      -2.200932     -1.753643      2.324288
  H      -2.253497     -3.106437      1.124372
28
Coordinates from ORCA-job NiFe_hydrogenase_singlet_min E -4822.340454047454
  Fe     -2.327723      1.088387      0.618798
  Ni      0.201483      0.036568     -0.352374
  S      -1.725894     -1.022166      0.073332
  S      -1.290905      1.366866     -1.386723
  C      -1.737461     -2.200676      1.473713
  H      -0.690384     -2.490960      1.654177
  C      -0.698215      3.071327     -1.686292
  H      -1.118048      3.414861     -2.643393
  H       0.401175      3.034400     -1.747600
  H      -1.019730      3.725623     -0.865994
  C      -3.960719      1.185109      0.200772
  O      -5.094582      1.239379     -0.111787
  C      -2.746760      0.650679      2.409814
  N      -3.027912      0.341677      3.512858
  C      -2.254657      2.923361      1.072161
  N      -2.199314      4.075051      1.320589
  S       1.472645     -1.386585      0.806293
  S       1.885883      1.025678     -1.402698
  C       1.947453     -2.585306     -0.489658
  H       2.519687     -2.090103     -1.290482
  H       1.061248     -3.059086     -0.941349
  H       2.571025     -3.373189     -0.033756
  C       3.534781      0.735744     -0.666687
  H       3.891169      1.640261     -0.147559
  H       4.258066      0.477617     -1.457391
  H       3.462883     -0.088702      0.062503
  H      -2.166639     -1.723212      2.363765
  H      -2.339306     -3.070552      1.171648
28
Coordinates from ORCA-job NiFe_hydrogenase_singlet_min E -4822.340494744194
  Fe     -2.335343      1.093554      0.621493
  Ni      0.189491      0.019891     -0.356580
  S      -1.741631     -1.021512      0.082680
  S      -1.296064      1.361871     -1.383663
  C      -1.756591     -2.195915      1.486647
  H      -0.715088     -2.515589      1.646071
  C      -0.691400      3.061517     -1.686585
  H      -1.126913      3.413258     -2.633841
  H       0.406001      3.010681     -1.770226
  H      -0.989953      3.717102     -0.858732
  C      -3.969573      1.192726      0.209440
  O      -5.104513      1.249677     -0.098483
  C      -2.752718      0.663223      2.413932
  N      -3.028575      0.360032      3.519930
  C      -2.260460      2.930016      1.068454
  N      -2.207755      4.082766      1.312520
  S       1.460039     -1.415866      0.790365
  S       1.880629      0.996126     -1.413272
  C       1.989072     -2.577101     -0.518552
  H       2.564484     -2.053636     -1.298669
  H       1.124895     -3.064383     -0.997051
  H       2.622269     -3.357689     -0.063197
  C       3.521774      0.727072     -0.652521
  H       3.867229      1.644226     -0.148682
  H       4.255361      0.456496     -1.429605
  H       3.447568     -0.083199      0.092000
  H      -2.153792     -1.704837      2.384070
  H      -2.389193     -3.048458      1.198737
28
Coordinates from ORCA-job NiFe_hydrogenase_singlet_min E -4822.340573751481
  Fe     -2.344478      1.101732      0.628035
  Ni      0.163974     -0.020845     -0.371790
  S      -1.776204     -1.022027      0.097131
  S      -1.308660      1.348463     -1.380028
  C      -1.801718     -2.189848      1.506331
  H      -0.775743     -2.569321      1.627121
  C      -0.679523      3.037659     -1.690812
  H      -1.125094      3.396189     -2.630925
  H       0.414986      2.964395     -1.792636
  H      -0.953073      3.699939     -0.859800
  C      -3.982027      1.212999      0.233639
  O      -5.119834      1.280011     -0.061164
  C      -2.751081      0.687089      2.425435
  N      -3.013275      0.395824      3.537950
  C      -2.255457      2.940651      1.062274
  N      -2.200635      4.095132      1.297462
  S       1.421036     -1.484781      0.759620
  S       1.868785      0.922186     -1.446912
  C       2.070584     -2.558182     -0.569648
  H       2.648260     -1.972112     -1.301427
  H       1.257748     -3.071688     -1.105945
  H       2.724689     -3.321366     -0.114095
  C       3.489768      0.718666     -0.625138
  H       3.796225      1.661749     -0.145054
  H       4.253989      0.438796     -1.368982
  H       3.415137     -0.067408      0.144476
  H      -2.137127     -1.676407      2.416205
  H      -2.492001     -3.005446      1.245359
28
Coordinates from ORCA-job NiFe_hydrogenase_singlet_min E -4822.340590578895
  Fe     -2.349073      1.109451      0.634185
  Ni      0.143735     -0.062837     -0.391245
  S      -1.805858     -1.020908      0.107460
  S      -1.317205      1.335161     -1.375542
  C      -1.840950     -2.181573      1.521974
  H      -0.835160     -2.619260      1.607742
  C      -0.671356      3.015787     -1.698064
  H      -1.120689      3.372797     -2.636925
  H       0.421172      2.927899     -1.807459
  H      -0.931415      3.686601     -0.869831
  C      -3.989916      1.229830      0.258670
  O      -5.130735      1.304662     -0.022186
  C      -2.739697      0.711850      2.438065
  N      -2.983716      0.433453      3.557975
  C      -2.248540      2.951288      1.053887
  N      -2.193409      4.107735      1.278960
  S       1.384627     -1.564382      0.714272
  S       1.859986      0.871531     -1.467340
  C       2.140203     -2.554763     -0.622951
  H       2.708910     -1.913633     -1.313282
  H       1.377092     -3.093883     -1.204552
  H       2.817314     -3.295731     -0.164215
  C       3.456918      0.722680     -0.588246
  H       3.733865      1.688584     -0.136986
  H       4.248571      0.425373     -1.296135
  H       3.374070     -0.035264      0.207585
  H      -2.116913     -1.650300      2.441244
  H      -2.582582     -2.960095      1.289623
28
Coordinates from ORCA-job NiFe_hydrogenase_singlet_min E -4822.340612734952
  Fe     -2.343219      1.107126      0.631236
  Ni      0.162180     -0.040700     -0.385247
  S      -1.784075     -1.017985      0.100371
  S      -1.309748      1.342493     -1.375465
  C      -1.816817     -2.179085      1.513865
  H      -0.801000     -2.588221      1.624451
  C      -0.684817      3.030321     -1.700633
  H      -1.134385      3.376998     -2.643179
  H       0.409444      2.960956     -1.803950
  H      -0.958614      3.700298     -0.876254
  C      -3.982253      1.216189      0.244880
  O      -5.121820      1.281700     -0.043638
  C      -2.735938      0.705351      2.434924
  N      -2.983316      0.422999      3.553082
  C      -2.253856      2.949105      1.053858
  N      -2.202915      4.105153      1.281845
  S       1.404644     -1.536007      0.722520
  S       1.872084      0.929799     -1.436541
  C       2.096207     -2.576968     -0.610950
  H       2.637599     -1.963898     -1.346828
  H       1.303970     -3.129585     -1.138776
  H       2.789194     -3.306388     -0.157697
  C       3.478522      0.728325     -0.585338
  H       3.778978      1.673941     -0.106733
  H       4.255173      0.439766     -1.313132
  H       3.391558     -0.052697      0.187184
  H      -2.129046     -1.655956      2.426079
  H      -2.528484     -2.980977      1.266745
28
Coordinates from ORCA-job NiFe_hydrogenase_singlet_min E -4822.340638180593
  Fe     -2.345195      1.107717      0.633390
  Ni      0.153752     -0.044059     -0.382303
  S      -1.793499     -1.019614      0.102736
  S      -1.316756      1.338896     -1.377709
  C      -1.826028     -2.183999      1.514203
  H      -0.816248     -2.612943      1.602100
  C      -0.685603      3.024437     -1.702951
  H      -1.128334      3.372066     -2.648388
  H       0.408983      2.952364     -1.800403
  H      -0.962998      3.695847     -0.880887
  C      -3.984133      1.222559      0.247417
  O      -5.123559      1.291384     -0.040788
  C      -2.737038      0.707332      2.437967
  N      -2.985892      0.425025      3.555803
  C      -2.247306      2.949694      1.055010
  N      -2.190400      4.105538      1.282579
  S       1.398914     -1.529483      0.731692
  S       1.865090      0.909973     -1.445596
  C       2.116697     -2.550379     -0.603937
  H       2.670065     -1.925105     -1.321267
  H       1.335047     -3.096509     -1.154610
  H       2.803320     -3.285758     -0.150845
  C       3.471460      0.709212     -0.593819
  H       3.761550      1.644569     -0.088872
  H       4.252417      0.448960     -1.327157
  H       3.386043     -0.089656      0.160799
  H      -2.110035     -1.658038      2.434065
  H      -2.561065     -2.967980      1.278452
28
Coordinates from ORCA-job NiFe_hydrogenase_singlet_min E -4822.340665763551
  Fe     -2.344997      1.108883      0.635130
  Ni      0.149021     -0.053747     -0.388594
  S      -1.799531     -1.020899      0.103642
  S      -1.318766      1.335093     -1.378202
  C      -1.830259     -2.183613      1.515960
  H      -0.824419     -2.623538      1.593005
  C      -0.683203      3.018353     -1.707037
  H      -1.122149      3.364257     -2.654658
  H       0.411694      2.943668     -1.800373
  H      -0.961296      3.691387     -0.886497
  C      -3.984656      1.226261      0.254275
  O      -5.124929      1.296806     -0.030209
  C      -2.730687      0.712888      2.442042
  N      -2.973339      0.433849      3.562027
  C      -2.242817      2.951649      1.052706
  N      -2.184091      4.107961      1.277304
  S       1.390979     -1.547938      0.718419
  S       1.863876      0.896248     -1.450995
  C       2.123120     -2.558645     -0.617255
  H       2.686927     -1.928033     -1.321844
  H       1.346448     -3.097007     -1.182732
  H       2.801643     -3.300686     -0.162968
  C       3.463476      0.722890     -0.580707
  H       3.740243      1.670968     -0.092499
  H       4.255266      0.453458     -1.299184
  H       3.377767     -0.062561      0.187870
  H      -2.100319     -1.655441      2.438791
  H      -2.575750     -2.960461      1.289263
28
Coordinates from ORCA-job NiFe_hydrogenase_singlet_min E -4822.340687074143
  Fe     -2.344532      1.111010      0.637544
  Ni      0.144621     -0.063620     -0.395656
  S      -1.805730     -1.020824      0.105326
  S      -1.322436      1.330416     -1.378807
  C      -1.835771     -2.180000      1.519932
  H      -0.836981     -2.637168      1.584770
  C      -0.686493      3.011706     -1.715499
  H      -1.119196      3.349792     -2.668822
  H       0.409279      2.938531     -1.800526
  H      -0.970984      3.690207     -0.901601
  C      -3.984686      1.229222      0.260921
  O      -5.125820      1.299694     -0.020274
  C      -2.721028      0.721046      2.448303
  N      -2.955132      0.445874      3.571026
  C      -2.238070      2.955017      1.049926
  N      -2.177504      4.111872      1.271139
  S       1.382137     -1.568822      0.699940
  S       1.863459      0.893137     -1.447759
  C       2.136167     -2.561119     -0.637627
  H       2.700805     -1.918700     -1.330423
  H       1.369545     -3.101082     -1.215087
  H       2.816637     -3.301257     -0.183214
  C       3.453839      0.725609     -0.559471
  H       3.723381      1.675952     -0.071659
  H       4.254257      0.454753     -1.267783
  H       3.361380     -0.057496      0.210693
  H      -2.085001     -1.646446      2.445457
  H      -2.596892     -2.945257      1.305910
28
Coordinates from ORCA-job NiFe_hydrogenase_singlet_min E -4822.340714801949
  Fe     -2.342041      1.112904      0.640079
  Ni      0.140640     -0.071330     -0.402268
  S      -1.811070     -1.022149      0.106662
  S      -1.327490      1.324066     -1.382485
  C      -1.835239     -2.177275      1.523933
  H      -0.845483     -2.655826      1.567776
  C      -0.692941      3.003274     -1.730028
  H      -1.111143      3.328519     -2.694235
  H       0.404661      2.935205     -1.796329
  H      -0.992628      3.689088     -0.927587
  C      -3.982085      1.231283      0.265460
  O      -5.123839      1.299961     -0.014013
  C      -2.706896      0.729002      2.455863
  N      -2.931480      0.456909      3.581226
  C      -2.228586      2.958251      1.046944
  N      -2.162643      4.115461      1.264663
  S       1.374297     -1.584489      0.681557
  S       1.863737      0.896234     -1.437494
  C       2.139362     -2.565253     -0.658846
  H       2.709313     -1.916153     -1.340913
  H       1.377111     -3.099794     -1.246990
  H       2.816316     -3.309677     -0.206294
  C       3.444502      0.732513     -0.531506
  H       3.697401      1.677608     -0.024972
  H       4.257503      0.481054     -1.232583
  H       3.348643     -0.063676      0.224917
  H      -2.052650     -1.637718      2.453986
  H      -2.618023     -2.925940      1.330156
28
Coordinates from ORCA-job NiFe_hydrogenase_singlet_min E -4822.340733535235
  Fe     -2.340225      1.114885      0.641510
  Ni      0.136476     -0.077854     -0.406769
  S      -1.816463     -1.023419      0.109694
  S      -1.331929      1.318408     -1.386401
  C      -1.834676     -2.174280      1.530445
  H      -0.854183     -2.672601      1.555099
  C      -0.697760      2.995792     -1.741638
  H      -1.099865      3.309682     -2.716414
  H       0.401248      2.931480     -1.787974
  H      -1.013100      3.688577     -0.951096
  C      -3.980176      1.232722      0.267984
  O      -5.122339      1.299428     -0.010563
  C      -2.696919      0.735029      2.460701
  N      -2.914796      0.464867      3.587819
  C      -2.221261      2.961167      1.044031
  N      -2.150562      4.118646      1.258794
  S       1.367584     -1.597257      0.666875
  S       1.863207      0.897582     -1.428054
  C       2.143364     -2.564040     -0.678062
  H       2.715217     -1.907177     -1.350972
  H       1.386824     -3.096392     -1.275326
  H       2.820036     -3.309957     -0.227510
  C       3.436079      0.733563     -0.508637
  H       3.672861      1.670034      0.021089
  H       4.258850      0.506786     -1.206643
  H       3.340414     -0.079553      0.229619
  H      -2.020902     -1.628285      2.463450
  H      -2.637754     -2.905787      1.355627
28
Coordinates from ORCA-job NiFe_hydrogenase_singlet_min E -4822.340754070300
  Fe     -2.337668      1.116373      0.642512
  Ni      0.132086     -0.084902     -0.408509
  S      -1.822315     -1.025765      0.115245
  S      -1.335554      1.311488     -1.390669
  C      -1.835276     -2.171347      1.540710
  H      -0.861929     -2.683851      1.551861
  C      -0.699387      2.986715     -1.751568
  H      -1.083392      3.290122     -2.736916
  H       0.400523      2.924622     -1.776473
  H      -1.030595      3.686568     -0.973768
  C      -3.977598      1.234251      0.269698
  O      -5.120003      1.299580     -0.008394
  C      -2.689260      0.739977      2.463958
  N      -2.903351      0.471424      3.592182
  C      -2.212802      2.963397      1.040286
  N      -2.136500      4.121125      1.251821
  S       1.359489     -1.612909      0.653546
  S       1.862103      0.893411     -1.419940
  C       2.145567     -2.560463     -0.699330
  H       2.716791     -1.893657     -1.362878
  H       1.395267     -3.091109     -1.305702
  H       2.824259     -3.307138     -0.252953
  C       3.427799      0.735607     -0.487504
  H       3.644056      1.663097      0.066163
  H       4.259883      0.539111     -1.183514
  H       3.337998     -0.095170      0.231455
  H      -1.997636     -1.619107      2.474408
  H      -2.653305     -2.889400      1.380951
28
Coordinates from ORCA-job NiFe_hydrogenase_singlet_min E -4822.340769944537
  Fe     -2.330828      1.117650      0.640521
  Ni      0.135772     -0.084376     -0.407854
  S      -1.817342     -1.027803      0.122758
  S      -1.334389      1.305657     -1.397870
  C      -1.820946     -2.166097      1.555012
  H      -0.854307     -2.691097      1.552350
  C      -0.700727      2.980817     -1.763198
  H      -1.057421      3.268729     -2.763344
  H       0.399875      2.925728     -1.755297
  H      -1.058609      3.688500     -1.004504
  C      -3.970952      1.227696      0.266447
  O      -5.113487      1.285941     -0.012829
  C      -2.679134      0.744189      2.463384
  N      -2.890689      0.477017      3.592430
  C      -2.207929      2.966215      1.031039
  N      -2.129770      4.124733      1.237620
  S       1.362778     -1.621943      0.637615
  S       1.868110      0.902934     -1.403561
  C       2.121714     -2.574641     -0.727278
  H       2.685863     -1.912678     -1.401444
  H       1.360501     -3.103619     -1.321283
  H       2.803102     -3.323444     -0.288286
  C       3.424322      0.751285     -0.454651
  H       3.603522      1.656842      0.146345
  H       4.269008      0.616626     -1.149971
  H       3.353148     -0.114916      0.222976
  H      -1.959262     -1.606540      2.488079
  H      -2.652672     -2.871354      1.411475
28
Coordinates from ORCA-job NiFe_hydrogenase_singlet_min E -4822.340780481633
  Fe     -2.333392      1.123106      0.643300
  Ni      0.123899     -0.094073     -0.404280
  S      -1.829839     -1.029481      0.139655
  S      -1.342112      1.295474     -1.401353
  C      -1.825918     -2.157878      1.580011
  H      -0.867253     -2.696868      1.563031
  C      -0.701697      2.966814     -1.774370
  H      -1.029610      3.239605     -2.788189
  H       0.398405      2.912695     -1.733830
  H      -1.081225      3.683082     -1.034551
  C      -3.974744      1.229056      0.273982
  O      -5.118157      1.283557     -0.002411
  C      -2.676502      0.761031      2.468752
  N      -2.882455      0.501689      3.600653
  C      -2.208686      2.974450      1.017762
  N      -2.127283      4.134637      1.213431
  S       1.344993     -1.656442      0.613130
  S       1.864371      0.886509     -1.389873
  C       2.143557     -2.555907     -0.764896
  H       2.729767     -1.870060     -1.395408
  H       1.400087     -3.058572     -1.403340
  H       2.808204     -3.324217     -0.334024
  C       3.413864      0.732758     -0.430645
  H       3.553234      1.608931      0.221886
  H       4.269436      0.667998     -1.122861
  H       3.371093     -0.172993      0.195057
  H      -1.942440     -1.591665      2.511994
  H      -2.670346     -2.851184      1.454066
28
Coordinates from ORCA-job NiFe_hydrogenase_singlet_min E -4822.340807485132
  Fe     -2.330700      1.120524      0.642392
  Ni      0.129803     -0.091922     -0.403250
  S      -1.823908     -1.029305      0.136239
  S      -1.337166      1.297641     -1.398938
  C      -1.826093     -2.160337      1.574226
  H      -0.860240     -2.686871      1.571459
  C      -0.697934      2.970029     -1.769681
  H      -1.042653      3.250079     -2.776165
  H       0.402421      2.913752     -1.748968
  H      -1.063915      3.683045     -1.020061
  C      -3.972315      1.227526      0.273281
  O      -5.115595      1.283849     -0.003061
  C      -2.677281      0.757072      2.466420
  N      -2.886809      0.497071      3.597549
  C      -2.208695      2.971332      1.019660
  N      -2.130139      4.131331      1.217742
  S       1.352196     -1.651305      0.619722
  S       1.866868      0.888511     -1.395873
  C       2.134351     -2.564833     -0.758145
  H       2.710740     -1.884870     -1.403752
  H       1.383063     -3.075698     -1.380404
  H       2.806607     -3.326757     -0.327991
  C       3.416568      0.743493     -0.435385
  H       3.568662      1.634838      0.193471
  H       4.268790      0.650850     -1.128569
  H       3.364950     -0.143667      0.215591
  H      -1.964486     -1.596920      2.504936
  H      -2.657840     -2.866407      1.434232
28
Coordinates from ORCA-job NiFe_hydrogenase_singlet_min E -4822.340821091921
  Fe     -2.328492      1.121255      0.642347
  Ni      0.132548     -0.091865     -0.402768
  S      -1.820338     -1.028703      0.138908
  S      -1.335350      1.296263     -1.398881
  C      -1.822231     -2.157761      1.577887
  H      -0.857377     -2.686196      1.574382
  C      -0.698409      2.968547     -1.774260
  H      -1.044057      3.244609     -2.781592
  H       0.402082      2.914814     -1.754260
  H      -1.065608      3.683065     -1.026663
  C      -3.971005      1.224182      0.275908
  O      -5.114768      1.278082      0.001264
  C      -2.672692      0.762930      2.467336
  N      -2.879885      0.506626      3.599752
  C      -2.211123      2.973332      1.014065
  N      -2.135935      4.134098      1.208969
  S       1.355635     -1.658615      0.611199
  S       1.871007      0.892341     -1.389750
  C       2.129139     -2.572489     -0.771233
  H       2.704420     -1.892988     -1.418260
  H       1.372994     -3.079836     -1.390445
  H       2.801053     -3.337148     -0.345552
  C       3.415178      0.748103     -0.420247
  H       3.557387      1.633777      0.218919
  H       4.271707      0.669447     -1.109914
  H       3.367312     -0.145828      0.221606
  H      -1.960108     -1.593462      2.508176
  H      -2.653834     -2.864529      1.439786
28
Coordinates from ORCA-job NiFe_hydrogenase_singlet_min E -4822.340832229133
  Fe     -2.325062      1.122479      0.642735
  Ni      0.133024     -0.096559     -0.401049
  S      -1.819880     -1.029416      0.146071
  S      -1.334024      1.290489     -1.399635
  C      -1.820192     -2.152892      1.588743
  H      -0.857072     -2.684650      1.583413
  C      -0.697054      2.960910     -1.783105
  H      -1.039668      3.229653     -2.793507
  H       0.403481      2.909298     -1.759548
  H      -1.067902      3.679575     -1.041283
  C      -3.969081      1.221509      0.281454
  O      -5.113642      1.273274      0.010011
  C      -2.665478      0.773663      2.469403
  N      -2.869460      0.523955      3.603900
  C      -2.211054      2.976484      1.004316
  N      -2.138136      4.138379      1.193337
  S       1.355449     -1.678211      0.595660
  S       1.874547      0.889585     -1.380614
  C       2.126696     -2.577288     -0.797582
  H       2.702923     -1.891025     -1.436577
  H       1.368638     -3.075258     -1.422014
  H       2.797223     -3.348460     -0.381687
  C       3.408964      0.753046     -0.394765
  H       3.526080      1.624997      0.267992
  H       4.273598      0.710376     -1.077491
  H       3.374016     -0.156774      0.224975
  H      -1.954975     -1.585327      2.517521
  H      -2.652710     -2.859759      1.456006
28
Coordinates from ORCA-job NiFe_hydrogenase_singlet_min E -4822.340838186294
  Fe     -2.323263      1.123544      0.642647
  Ni      0.131729     -0.101308     -0.401721
  S      -1.821547     -1.030046      0.149754
  S      -1.334158      1.286223     -1.400706
  C      -1.818360     -2.149132      1.595421
  H      -0.858597     -2.686915      1.584150
  C      -0.697195      2.955036     -1.790079
  H      -1.035595      3.218171     -2.803335
  H       0.403356      2.905155     -1.761271
  H      -1.072131      3.676752     -1.053223
  C      -3.968306      1.220940      0.285588
  O      -5.113521      1.271914      0.016857
  C      -2.659488      0.781267      2.470951
  N      -2.860055      0.535970      3.607022
  C      -2.209888      2.978770      0.997887
  N      -2.137608      4.141288      1.183241
  S       1.353371     -1.692191      0.584737
  S       1.876108      0.886717     -1.374479
  C       2.127125     -2.579225     -0.814964
  H       2.704859     -1.887096     -1.446242
  H       1.369753     -3.070798     -1.445304
  H       2.796502     -3.354718     -0.405254
  C       3.403088      0.754919     -0.376644
  H       3.500282      1.614544      0.305125
  H       4.273961      0.740817     -1.052585
  H       3.377763     -0.167843      0.224018
  H      -1.943461     -1.578525      2.523686
  H      -2.655471     -2.852179      1.471402
28
Coordinates from ORCA-job NiFe_hydrogenase_singlet_min E -4822.340845856133
  Fe     -2.320498      1.124884      0.641985
  Ni      0.128243     -0.110445     -0.404721
  S      -1.826239     -1.031522      0.153777
  S      -1.335245      1.279294     -1.402991
  C      -1.816600     -2.143805      1.604396
  H      -0.863285     -2.692651      1.582230
  C      -0.697330      2.945391     -1.800380
  H      -1.028126      3.200769     -2.818061
  H       0.403099      2.897270     -1.762303
  H      -1.078521      3.671827     -1.071333
  C      -3.967034      1.222000      0.291881
  O      -5.113279      1.273275      0.027669
  C      -2.649552      0.791125      2.472847
  N      -2.844754      0.551450      3.611050
  C      -2.205264      2.981537      0.989516
  N      -2.132232      4.144685      1.170491
  S       1.347984     -1.713475      0.569209
  S       1.877011      0.879930     -1.367539
  C       2.129674     -2.580194     -0.839094
  H       2.707517     -1.877601     -1.458589
  H       1.375980     -3.065448     -1.478688
  H       2.799954     -3.359267     -0.437612
  C       3.392020      0.757599     -0.350548
  H       3.458643      1.598963      0.357031
  H       4.271578      0.784765     -1.014677
  H       3.381192     -0.182189      0.223289
  H      -1.922560     -1.568014      2.531788
  H      -2.663126     -2.838101      1.496054
28
Coordinates from ORCA-job NiFe_hydrogenase_singlet_min E -4822.340852635706
  Fe     -2.316747      1.126858      0.641004
  Ni      0.122858     -0.122728     -0.410485
  S      -1.833099     -1.033528      0.158111
  S      -1.337628      1.270438     -1.406770
  C      -1.814801     -2.137688      1.614887
  H      -0.872340     -2.704029      1.576628
  C      -0.697754      2.933056     -1.813715
  H      -1.017055      3.178472     -2.837442
  H       0.402283      2.886770     -1.762126
  H      -1.087622      3.665739     -1.095545
  C      -3.965078      1.224580      0.300075
  O      -5.112678      1.276645      0.041914
  C      -2.635415      0.802353      2.475283
  N      -2.822948      0.568748      3.616024
  C      -2.197341      2.985063      0.979981
  N      -2.122160      4.148829      1.155947
  S       1.340044     -1.739705      0.548292
  S       1.877653      0.870231     -1.360240
  C       2.133993     -2.581261     -0.868736
  H       2.710647     -1.865795     -1.474387
  H       1.386608     -3.061428     -1.519496
  H       2.806697     -3.362448     -0.475363
  C       3.375915      0.761660     -0.317167
  H       3.402664      1.579951      0.419270
  H       4.265223      0.839391     -0.964028
  H       3.384984     -0.196416      0.225113
  H      -1.891264     -1.555391      2.541012
  H      -2.676389     -2.816317      1.528637
28
Coordinates from ORCA-job NiFe_hydrogenase_singlet_min E -4822.340859522867
  Fe     -2.312377      1.129542      0.639651
  Ni      0.114570     -0.139186     -0.420472
  S      -1.843166     -1.035775      0.161744
  S      -1.341796      1.260172     -1.411485
  C      -1.814478     -2.131040      1.625212
  H      -0.887773     -2.720969      1.566422
  C      -0.697819      2.918297     -1.828946
  H      -1.007151      3.154425     -2.857850
  H       0.401693      2.871794     -1.766083
  H      -1.093420      3.657692     -1.120863
  C      -3.963041      1.230031      0.311799
  O      -5.112483      1.284597      0.062373
  C      -2.616710      0.814979      2.478156
  N      -2.793785      0.588066      3.621897
  C      -2.186036      2.989322      0.969526
  N      -2.107644      4.153665      1.140070
  S       1.327553     -1.772540      0.521758
  S       1.877162      0.855056     -1.355860
  C       2.143757     -2.582502     -0.901284
  H       2.720368     -1.851211     -1.487645
  H       1.407757     -3.057532     -1.568632
  H       2.818611     -3.365045     -0.514209
  C       3.352732      0.766773     -0.278902
  H       3.330678      1.559431      0.484904
  H       4.252076      0.901066     -0.902196
  H       3.387586     -0.207765      0.231414
  H      -1.852214     -1.541921      2.549275
  H      -2.695398     -2.787373      1.566902
28
Coordinates from ORCA-job NiFe_hydrogenase_singlet_min E -4822.340872364807
  Fe     -2.309340      1.132708      0.638640
  Ni      0.103167     -0.156701     -0.435279
  S      -1.856300     -1.037289      0.161835
  S      -1.349017      1.251921     -1.416066
  C      -1.817721     -2.126263      1.630038
  H      -0.912158     -2.745170      1.547380
  C      -0.699216      2.905584     -1.841898
  H      -1.003674      3.136429     -2.873417
  H       0.399900      2.855846     -1.774074
  H      -1.094857      3.650333     -1.139530
  C      -3.962222      1.239118      0.325471
  O      -5.113626      1.298266      0.086097
  C      -2.596967      0.824483      2.481438
  N      -2.761924      0.602013      3.627825
  C      -2.172829      2.993360      0.962872
  N      -2.089881      4.157878      1.129864
  S       1.309802     -1.804105      0.494954
  S       1.873884      0.837184     -1.358291
  C       2.163124     -2.581042     -0.924840
  H       2.741672     -1.833295     -1.487879
  H       1.446358     -3.054164     -1.614193
  H       2.839322     -3.361930     -0.536675
  C       3.325714      0.768855     -0.247891
  H       3.265589      1.549133      0.526215
  H       4.234436      0.936167     -0.849338
  H       3.376506     -0.211504      0.249184
  H      -1.809316     -1.532589      2.551765
  H      -2.721179     -2.753176      1.602471
28
Coordinates from ORCA-job NiFe_hydrogenase_singlet_min E -4822.340894752258
  Fe     -2.304936      1.138184      0.637639
  Ni      0.081977     -0.184218     -0.463322
  S      -1.879453     -1.039025      0.158870
  S      -1.363597      1.241391     -1.423721
  C      -1.826181     -2.121334      1.632120
  H      -0.962289     -2.790624      1.509928
  C      -0.702066      2.888036     -1.860058
  H      -1.004449      3.115061     -2.893054
  H       0.396568      2.829207     -1.791638
  H      -1.091405      3.639928     -1.161979
  C      -3.960979      1.257161      0.349175
  O      -5.115415      1.325431      0.126916
  C      -2.564086      0.834285      2.486734
  N      -2.708736      0.615284      3.636453
  C      -2.148852      2.999214      0.956888
  N      -2.056847      4.163536      1.120258
  S       1.276114     -1.852352      0.449917
  S       1.865687      0.806069     -1.370048
  C       2.202519     -2.577043     -0.951401
  H       2.789604     -1.805358     -1.471206
  H       1.525126     -3.045919     -1.682325
  H       2.875092     -3.355692     -0.552528
  C       3.277613      0.771480     -0.207503
  H       3.168314      1.548406      0.564142
  H       4.201097      0.965996     -0.777798
  H       3.342275     -0.207222      0.290494
  H      -1.737787     -1.525172      2.547758
  H      -2.765658     -2.692660      1.655969
28
Coordinates from ORCA-job NiFe_hydrogenase_singlet_min E -4822.340889398225
  Fe     -2.308420      1.135700      0.637918
  Ni      0.083914     -0.176245     -0.466165
  S      -1.877754     -1.036885      0.150086
  S      -1.364981      1.250245     -1.421276
  C      -1.833677     -2.128325      1.617145
  H      -0.960017     -2.786492      1.505283
  C      -0.700570      2.900348     -1.843714
  H      -1.023719      3.145944     -2.866267
  H       0.398659      2.832010     -1.800877
  H      -1.070181      3.643902     -1.126423
  C      -3.963322      1.260070      0.344626
  O      -5.117000      1.331700      0.119416
  C      -2.574591      0.816019      2.484101
  N      -2.725754      0.587055      3.631023
  C      -2.149606      2.994157      0.970456
  N      -2.056321      4.157335      1.141214
  S       1.277599     -1.828165      0.469671
  S       1.856208      0.819370     -1.389686
  C       2.208458     -2.582739     -0.912034
  H       2.807664     -1.826283     -1.440282
  H       1.532881     -3.057112     -1.641082
  H       2.869762     -3.360932     -0.494107
  C       3.285787      0.777550     -0.249330
  H       3.220144      1.592180      0.487877
  H       4.207617      0.908578     -0.840235
  H       3.320493     -0.180480      0.290943
  H      -1.766997     -1.536477      2.537459
  H      -2.767025     -2.709978      1.620936
28
Coordinates from ORCA-job NiFe_hydrogenase_singlet_min E -4822.340924971425
  Fe     -2.302307      1.140802      0.639132
  Ni      0.076844     -0.186383     -0.470947
  S      -1.883907     -1.038113      0.159340
  S      -1.369597      1.241044     -1.427365
  C      -1.830377     -2.122081      1.631176
  H      -0.977791     -2.803898      1.500927
  C      -0.704115      2.886685     -1.865121
  H      -1.010822      3.114384     -2.896891
  H       0.394623      2.823787     -1.803142
  H      -1.088499      3.639694     -1.165630
  C      -3.958951      1.263525      0.356078
  O      -5.114078      1.333180      0.137728
  C      -2.554021      0.831671      2.489336
  N      -2.694275      0.609625      3.638988
  C      -2.139707      3.001231      0.958748
  N      -2.043555      4.165370      1.121204
  S       1.267058     -1.858858      0.432743
  S       1.860369      0.806775     -1.375452
  C       2.216648     -2.581870     -0.953195
  H       2.819696     -1.813701     -1.459612
  H       1.551270     -3.043730     -1.699392
  H       2.874956     -3.366212     -0.542248
  C       3.262291      0.777123     -0.201186
  H       3.149262      1.560598      0.563501
  H       4.190040      0.965690     -0.766715
  H       3.322641     -0.197242      0.306147
  H      -1.726297     -1.527990      2.546442
  H      -2.778145     -2.679054      1.662086
28
Coordinates from ORCA-job NiFe_hydrogenase_singlet_min E -4822.340940010161
  Fe     -2.298254      1.142847      0.640062
  Ni      0.071949     -0.193558     -0.474007
  S      -1.889112     -1.038704      0.163264
  S      -1.371810      1.236716     -1.429906
  C      -1.831432     -2.119580      1.636286
  H      -0.983949     -2.806885      1.500740
  C      -0.704427      2.879407     -1.874773
  H      -1.011227      3.102341     -2.907556
  H       0.394352      2.816607     -1.812535
  H      -1.088863      3.635395     -1.178439
  C      -3.956113      1.268293      0.364688
  O      -5.112031      1.339898      0.151413
  C      -2.542646      0.840075      2.491984
  N      -2.678262      0.622316      3.643021
  C      -2.131826      3.003850      0.952770
  N      -2.033457      4.168396      1.110962
  S       1.257729     -1.878209      0.414088
  S       1.859814      0.796657     -1.373074
  C       2.224655     -2.582283     -0.969583
  H       2.834036     -1.807937     -1.458779
  H       1.567834     -3.033679     -1.729580
  H       2.878151     -3.372040     -0.561460
  C       3.247025      0.779008     -0.181572
  H       3.107016      1.544733      0.596531
  H       4.176680      0.999819     -0.732069
  H       3.323316     -0.202951      0.308691
  H      -1.719102     -1.524995      2.550283
  H      -2.780794     -2.673486      1.675228
28
Coordinates from ORCA-job NiFe_hydrogenase_singlet_min E -4822.340957335967
  Fe     -2.295304      1.144452      0.641923
  Ni      0.068016     -0.194847     -0.476773
  S      -1.893224     -1.037720      0.164354
  S      -1.375597      1.237186     -1.432252
  C      -1.833376     -2.119673      1.635302
  H      -0.982429     -2.803004      1.499892
  C      -0.708710      2.878804     -1.880437
  H      -1.019577      3.100386     -2.912287
  H       0.390350      2.816753     -1.821860
  H      -1.091544      3.635025     -1.183345
  C      -3.953827      1.274025      0.371055
  O      -5.110125      1.347955      0.160872
  C      -2.535364      0.843230      2.494488
  N      -2.669440      0.626328      3.645883
  C      -2.124375      3.004972      0.951756
  N      -2.022704      4.169535      1.107849
  S       1.248572     -1.884147      0.404545
  S       1.855717      0.795576     -1.374790
  C       2.234199     -2.581494     -0.969292
  H       2.854168     -1.807234     -1.445285
  H       1.586553     -3.025165     -1.741526
  H       2.879285     -3.375883     -0.556952
  C       3.238036      0.776230     -0.178129
  H       3.090131      1.531379      0.608820
  H       4.169314      1.008880     -0.720810
  H       3.316196     -0.211217      0.301079
  H      -1.727539     -1.526481      2.551055
  H      -2.778154     -2.681799      1.671544
28
Coordinates from ORCA-job NiFe_hydrogenase_singlet_min E -4822.340967073853
  Fe     -2.289415      1.147237      0.642890
  Ni      0.054752     -0.206361     -0.493614
  S      -1.907377     -1.037345      0.161060
  S      -1.386533      1.235409     -1.438544
  C      -1.839435     -2.119665      1.630968
  H      -1.000723     -2.815403      1.482704
  C      -0.713963      2.873426     -1.890956
  H      -1.029241      3.095598     -2.921357
  H       0.385007      2.805882     -1.837443
  H      -1.089909      3.631874     -1.192575
  C      -3.949543      1.288990      0.387337
  O      -5.107175      1.371098      0.187753
  C      -2.514258      0.844494      2.497463
  N      -2.640153      0.626598      3.649588
  C      -2.103381      3.006227      0.951718
  N      -1.992921      4.170174      1.106574
  S       1.222876     -1.905603      0.379657
  S       1.845813      0.781571     -1.387968
  C       2.259646     -2.578665     -0.968231
  H       2.895524     -1.797727     -1.410999
  H       1.641670     -3.011826     -1.770114
  H       2.890718     -3.377878     -0.543705
  C       3.207633      0.775913     -0.167992
  H       3.035436      1.523554      0.620960
  H       4.144827      1.025247     -0.692809
  H       3.291757     -0.213086      0.306912
  H      -1.711512     -1.528424      2.545109
  H      -2.790867     -2.669260      1.682292
28
Coordinates from ORCA-job NiFe_hydrogenase_singlet_min E -4822.340972473527
  Fe     -2.287993      1.145745      0.643116
  Ni      0.057099     -0.203528     -0.491071
  S      -1.905800     -1.037366      0.160703
  S      -1.385733      1.236367     -1.439006
  C      -1.839957     -2.121332      1.629835
  H      -0.991063     -2.806390      1.489368
  C      -0.713708      2.875104     -1.889087
  H      -1.027347      3.098163     -2.919773
  H       0.385168      2.807957     -1.833492
  H      -1.090793      3.633071     -1.190797
  C      -3.947906      1.288823      0.385370
  O      -5.105186      1.371844      0.184253
  C      -2.516935      0.841306      2.496504
  N      -2.647095      0.621896      3.647890
  C      -2.101243      3.003962      0.953752
  N      -1.989440      4.167642      1.109774
  S       1.224842     -1.898614      0.387186
  S       1.844501      0.786130     -1.388890
  C       2.254320     -2.578967     -0.962753
  H       2.886135     -1.800288     -1.415203
  H       1.632429     -3.019042     -1.757799
  H       2.889666     -3.373834     -0.536359
  C       3.211600      0.777535     -0.174585
  H       3.043934      1.525037      0.615431
  H       4.147244      1.025253     -0.702885
  H       3.295339     -0.211916      0.299312
  H      -1.727948     -1.529554      2.545723
  H      -2.784879     -2.682955      1.670161
28
Coordinates from ORCA-job NiFe_hydrogenase_singlet_min E -4822.340977485814
  Fe     -2.285362      1.145770      0.642780
  Ni      0.056658     -0.204050     -0.493882
  S      -1.906369     -1.037297      0.159475
  S      -1.387464      1.235648     -1.441343
  C      -1.838661     -2.121410      1.628931
  H      -0.990257     -2.806855      1.487521
  C      -0.715982      2.873961     -1.893310
  H      -1.024796      3.094208     -2.926001
  H       0.382700      2.808028     -1.831983
  H      -1.096270      3.633529     -1.198502
  C      -3.945744      1.290161      0.388286
  O      -5.103324      1.374384      0.189434
  C      -2.511500      0.842310      2.496395
  N      -2.640614      0.623202      3.647963
  C      -2.096710      3.003708      0.953094
  N      -1.983653      4.167281      1.109043
  S       1.222831     -1.899309      0.384266
  S       1.845282      0.786378     -1.387757
  C       2.253173     -2.579185     -0.965519
  H       2.880035     -1.798741     -1.421749
  H       1.632404     -3.025373     -1.758102
  H       2.893107     -3.369402     -0.537297
  C       3.207213      0.777346     -0.167259
  H       3.031227      1.519427      0.625882
  H       4.143683      1.033597     -0.690109
  H       3.295717     -0.214141      0.301160
  H      -1.723943     -1.529230      2.544186
  H      -2.784127     -2.681894      1.671076
28
Coordinates from ORCA-job NiFe_hydrogenase_singlet_min E -4822.340980724547
  Fe     -2.281106      1.145610      0.642495
  Ni      0.054915     -0.207437     -0.498701
  S      -1.908759     -1.037588      0.157997
  S      -1.390093      1.233282     -1.444336
  C      -1.839818     -2.121786      1.627719
  H      -0.993545     -2.809463      1.484478
  C      -0.717622      2.870314     -1.899289
  H      -1.024192      3.088635     -2.933027
  H       0.380944      2.804050     -1.835534
  H      -1.098004      3.631674     -1.206479
  C      -3.942330      1.293513      0.394772
  O      -5.100443      1.380896      0.200565
  C      -2.502080      0.844615      2.496653
  N      -2.629037      0.626849      3.648728
  C      -2.088371      3.003196      0.951533
  N      -1.973148      4.166626      1.106967
  S       1.217839     -1.905473      0.377581
  S       1.845380      0.783010     -1.388325
  C       2.255179     -2.579858     -0.969804
  H       2.878746     -1.795590     -1.423951
  H       1.638886     -3.029102     -1.764237
  H       2.897928     -3.367014     -0.540203
  C       3.197876      0.779844     -0.157084
  H       3.006010      1.513883      0.639665
  H       4.134962      1.051775     -0.671015
  H       3.296558     -0.213673      0.304607
  H      -1.720631     -1.529318      2.542220
  H      -2.786794     -2.679421      1.672681
28
Coordinates from ORCA-job NiFe_hydrogenase_singlet_min E -4822.340981842159
  Fe     -2.279675      1.145519      0.642809
  Ni      0.054217     -0.208311     -0.500486
  S      -1.909782     -1.037539      0.157325
  S      -1.391770      1.232315     -1.445414
  C      -1.841737     -2.122588      1.626442
  H      -0.996506     -2.811411      1.482638
  C      -0.719094      2.869005     -1.901543
  H      -1.025881      3.086797     -2.935337
  H       0.379520      2.802868     -1.838190
  H      -1.099050      3.630697     -1.208853
  C      -3.941167      1.295057      0.397803
  O      -5.099489      1.383829      0.205532
  C      -2.498453      0.845515      2.497241
  N      -2.624563      0.628264      3.649513
  C      -2.084923      3.002954      0.951500
  N      -1.968678      4.166296      1.106820
  S       1.215972     -1.906907      0.375301
  S       1.845088      0.782669     -1.388491
  C       2.257649     -2.579105     -0.969911
  H       2.880818     -1.793291     -1.421911
  H       1.643790     -3.028733     -1.766027
  H       2.900575     -3.365620     -0.539474
  C       3.195227      0.779990     -0.154762
  H       3.000687      1.513488      0.641799
  H       4.132957      1.053410     -0.666778
  H       3.294713     -0.213587      0.306651
  H      -1.721694     -1.530645      2.541197
  H      -2.789500     -2.678887      1.671287
