28
Coordinates from ORCA-job Ni_Fe_triplet_min
  Fe  -2.20817404900158      0.82426099937919      0.48825858795869
  Ni  0.62234965482154     -0.10129518473774      0.22047221936281
  S   -1.28779293045637     -1.24739020973755      0.78711295086004
  S   -0.81716742272197      0.77164235507152     -1.34083126490169
  C   -1.22017435145517     -1.71438153108228      2.55643082782499
  H   -0.56318602593142     -2.59225120472991      2.64096338966970
  C   -0.23919215542516      2.45049117129747     -1.78068139952241
  H   0.40697124389792      2.36449916132582     -2.66689004939485
  H   0.32819114436288      2.87268318087204     -0.94181157576933
  H   -1.10501845769828      3.09230080341591     -1.98822356171365
  C   -3.67810151993969      0.39215093520217     -0.21189108058854
  O   -4.70131527436669      0.08321244661181     -0.70334073809633
  C   -2.94086586391056      0.84918592846895      2.23560012561291
  N   -3.38428080737709      0.83914609579293      3.32808876632428
  C   -2.56297770962546      2.67529507066352      0.27812195115912
  N   -2.78769635882031      3.82079608475158      0.11194188357700
  S   2.03252671334316     -1.66317467989713     -0.57546309125657
  S   2.08255900000987      1.32291126940323      1.13955823892405
  C   1.00568366985557     -2.77405225053424     -1.60160408746089
  H   0.63437610952302     -2.25284667917452     -2.49728492741856
  H   0.13604300761105     -3.13009144471098     -1.03089356737414
  H   1.60987001414663     -3.64093563400532     -1.91890305410503
  C   3.41936445993674      1.59466570827044     -0.08049961479441
  H   4.32222232602030      1.97307813139515      0.42682024071584
  H   3.11218330161381      2.33107156660455     -0.84084671643531
  H   3.65636836690967      0.64986740825118     -0.59148796678930
  H   -0.83133496111843     -0.89193262446785      3.16644791650569
  H   -2.23218041220395     -1.95685699770000      2.90751500712590
