9
lambda = 0.55555556
C     -0.755166933264     2.042485836968     0.002869469321
H     -0.284524076293     2.348692910031     0.932267097712
H     -0.236615900022     2.304404996941    -0.912482068662
H     -1.834300577903     2.089747215753    -0.022874814834
O     -1.746226983490    -0.846528923558     0.283850807858
H     -2.112078484233    -1.176408298010     0.513126629213
C      1.527130563114    -0.397580668587     0.123255307056
O      2.566081315833    -0.659228326843     0.217523397985
Ni    -0.337120923743     0.025919257305     0.013458174349
