9
lambda = 0.77777778
C     -0.781031833564     2.196889833495    -0.017491993643
H     -0.300731686284     2.524310177568     0.900687630472
H     -0.269577760913     2.413701748598    -0.949685212098
H     -1.863066280593     2.206784048704    -0.033234611875
O     -1.707030174094    -0.859359821380     0.304249050889
H     -1.917469019865    -1.505196929240     0.467067380496
C      1.481508154619    -0.499158121945     0.163800065812
O      2.496134297446    -0.885569351736     0.226243568552
Ni    -0.351557696752     0.139102415935     0.089358121395
