9
lambda = 0.33333333
C     -0.729235313164     1.888097912363     0.023242270411
H     -0.267733639715     2.173155803511     0.963538319380
H     -0.204267232147     2.195063201674    -0.875613410711
H     -1.805455700529     1.972657488653    -0.011832947061
O     -1.785381438195    -0.833813890323     0.263002140354
H     -2.306708161089    -0.847486482224     0.558881237457
C      1.572662675671    -0.296071714200     0.082925945228
O      2.635920694624    -0.432782566433     0.209074362994
Ni    -0.322623885456    -0.087315753021    -0.062223918051
