9
lambda = 0.00000000
C     -0.690504682514     1.656475845650     0.053773126732
H     -0.244005051315     1.909649741187     1.011215765810
H     -0.154211247793     2.031163117798    -0.819474210071
H     -1.762386321177     1.797155133374     0.003024677768
O     -1.844219006978    -0.814451679005     0.232855200282
H     -2.598602145153    -0.354436719935     0.628274751007
C      1.641186584351    -0.143637035191     0.021893410168
O      2.740948861799    -0.093375764610     0.195722971568
Ni    -0.301028991220    -0.257038639268    -0.176291693264
