9
lambda = 0.88888889
C     -0.793964283714     2.274091831758    -0.027672725125
H     -0.308835491279     2.612118811337     0.884897896853
H     -0.286058691359     2.468350124426    -0.968286783816
H     -1.877449131938     2.265302465180    -0.038414510396
O     -1.687431769397    -0.865775270290     0.314448172404
H     -1.820164287681    -1.669591244855     0.444037756137
C      1.458696950371    -0.549946848624     0.184072445189
O      2.461160788253    -0.998739864182     0.230603653836
Ni    -0.358776083256     0.195693995249     0.127308094917
