9
lambda = 1.00000000
C     -0.806911760303     2.351651699610    -0.037838040481
H     -0.315177717503     2.700630536645     0.868017335841
H     -0.304856818420     2.523090587864    -0.988113214250
H     -1.891854711468     2.323622809310    -0.041357301380
O     -1.667677721618    -0.872397354118     0.322688909095
H     -1.722694786678    -1.834034378128     0.420549066054
C      1.435894711749    -0.601151795656     0.205178767348
O      2.426165073699    -1.112373666460     0.235988267663
Ni    -0.365708269458     0.252465560933     0.165880210110
