9
lambda = 0.44444444
C     -0.742234483114     1.965283838704     0.013050200804
H     -0.276420271297     2.260884276262     0.948056831331
H     -0.220134969576     2.249756621112    -0.893880496943
H     -1.819917726557     2.031228799277    -0.017694916314
O     -1.765825388187    -0.840113474648     0.273651686343
H     -2.209383216417    -1.012013982395     0.536156253572
C      1.549941767361    -0.346791941907     0.102982927679
O      2.601054825026    -0.546057814396     0.213163312702
Ni    -0.329902537238    -0.030672322009    -0.024491799173
