21
File written by ORCA
Fe   -0.445447    0.396105   -0.186994
S     0.154552    2.090834    1.057367
S     0.275852    1.172975   -2.097385
S     0.185244   -1.218714    1.142913
S    -2.407587   -0.418118   -0.668174
C    -0.568412   -2.802331    0.652912
H    -1.661517   -2.750525    0.745757
H    -0.182280   -3.569758    1.337528
H    -0.304895   -3.065087   -0.378525
C    -0.620525    1.849384    2.689865
H    -0.427328    2.752675    3.283871
H    -0.177558    0.976022    3.185921
H    -1.702134    1.700570    2.589073
C     0.513738   -0.320890   -3.119987
H     1.260831   -0.983583   -2.666672
H     0.872916    0.006380   -4.104888
H    -0.434026   -0.862633   -3.235523
C    -3.176170    0.615125   -1.958664
H    -3.227029    1.661752   -1.637577
H    -4.193607    0.231422   -2.117083
H    -2.607870    0.552447   -2.895074
