12
Coordinates from ORCA-job Mn_CO_singlet_min
  Mn  -2.20867477533832      1.75290047790909     -0.82024680318926
  C   -2.35566020444295     -0.12720932358390     -0.82024514772763
  C   -2.35566050442415      1.75290189282815     -2.70035668227437
  C   -2.35565860074631      1.75290136162457      1.05986261429500
  C   -2.35566019488415      3.63301015944762     -0.82024577846340
  C   -0.38288482133878      1.75289887489449     -0.82024726739674
  O   0.75698817198667      1.75289552321690     -0.82024807783240
  O   -2.47227471388081     -1.25318665516388     -0.82024378371106
  O   -2.47227529368823      1.75290342496825     -3.82633398277593
  O   -2.47227310501706      4.75898770824363     -0.82024457894843
  O   -2.47227027703207      1.75290256750766      2.18584029019938
  Br  -4.74875040119384      1.75289098810742     -0.82025648217516
