12
Coordinates from ORCA-job Mn_CO_triplet_min
  Mn  -2.18052243724627      1.75289692737338     -0.82023997711149
  C   -2.31767393917423     -0.14175901215667     -0.82024381995582
  C   -2.34989616396195      1.75290226496918     -3.11101972559260
  C   -2.34989928699876      1.75290234517150      1.47051600193300
  C   -2.31767767475816      3.64755216527805     -0.82024290876702
  C   -0.20845551074185      1.75289512137164     -0.82024518504363
  O   0.92402562129055      1.75289180358071     -0.82024722510518
  O   -2.42766830627191     -1.27238268473310     -0.82024484432186
  O   -2.78294335548294      1.75291418823511     -4.15048659626368
  O   -2.42767524947298      4.77817560665930     -0.82024354277157
  O   -2.78293194074311      1.75291575563153      2.50998908891359
  Br  -4.67373647643836      1.75289251861933     -0.82025694591372
