12
Coordinates from ORCA-job Mn_br_CO5_zero_singlet_triplet_singlet_min E -4291.738183170016
  Mn     -2.381705      1.752900     -0.820247
  C      -2.381705     -0.187100     -0.820247
  C      -2.381705      1.752900     -2.760247
  C      -2.381705      1.752900      1.119753
  C      -2.381705      3.692900     -0.820247
  C      -0.441705      1.752900     -0.820247
  O       0.673695      1.752900     -0.820247
  O      -2.381705     -1.302500     -0.820247
  O      -2.381705      1.752900     -3.875647
  O      -2.381705      4.808300     -0.820247
  O      -2.381705      1.752900      2.235153
  Br     -4.691705      1.752900     -0.820247
12
Coordinates from ORCA-job Mn_br_CO5_zero_singlet_triplet_singlet_min E -4291.746659559116
  Mn     -2.352943      1.752900     -0.820247
  C      -2.383178     -0.179440     -0.820247
  C      -2.383178      1.752900     -2.752587
  C      -2.383178      1.752900      1.112093
  C      -2.383178      3.685240     -0.820247
  C      -0.427259      1.752900     -0.820247
  O       0.705940      1.752900     -0.820247
  O      -2.397674     -1.308359     -0.820247
  O      -2.397674      1.752900     -3.881506
  O      -2.397674      4.814158     -0.820247
  O      -2.397675      1.752900      2.241011
  Br     -4.697385      1.752899     -0.820247
12
Coordinates from ORCA-job Mn_br_CO5_zero_singlet_triplet_singlet_min E -4291.753664626742
  Mn     -2.296791      1.752900     -0.820247
  C      -2.381505     -0.161367     -0.820247
  C      -2.381506      1.752900     -2.734514
  C      -2.381506      1.752900      1.094019
  C      -2.381505      3.667166     -0.820247
  C      -0.403411      1.752900     -0.820247
  O       0.742752      1.752900     -0.820247
  O      -2.426026     -1.298869     -0.820247
  O      -2.426026      1.752900     -3.872016
  O      -2.426025      4.804668     -0.820247
  O      -2.426027      1.752900      2.231521
  Br     -4.707478      1.752899     -0.820246
12
Coordinates from ORCA-job Mn_br_CO5_zero_singlet_triplet_singlet_min E -4291.757720627572
  Mn     -2.240867      1.752900     -0.820247
  C      -2.375030     -0.139825     -0.820246
  C      -2.375030      1.752900     -2.712972
  C      -2.375030      1.752900      1.072477
  C      -2.375030      3.645624     -0.820247
  C      -0.385405      1.752900     -0.820248
  O       0.763623      1.752899     -0.820248
  O      -2.452827     -1.276747     -0.820246
  O      -2.452827      1.752900     -3.849894
  O      -2.452827      4.782547     -0.820247
  O      -2.452828      1.752900      2.209399
  Br     -4.720977      1.752898     -0.820247
12
Coordinates from ORCA-job Mn_br_CO5_zero_singlet_triplet_singlet_min E -4291.759225682720
  Mn     -2.211588      1.752900     -0.820247
  C      -2.366769     -0.126491     -0.820246
  C      -2.366769      1.752901     -2.699638
  C      -2.366769      1.752900      1.059144
  C      -2.366769      3.632291     -0.820247
  C      -0.381290      1.752900     -0.820248
  O       0.763296      1.752899     -0.820249
  O      -2.465773     -1.257687     -0.820245
  O      -2.465772      1.752901     -3.830835
  O      -2.465771      4.763487     -0.820246
  O      -2.465772      1.752900      2.190340
  Br     -4.735310      1.752897     -0.820249
12
Coordinates from ORCA-job Mn_br_CO5_zero_singlet_triplet_singlet_min E -4291.759520639895
  Mn     -2.209466      1.752900     -0.820247
  C      -2.361568     -0.124520     -0.820246
  C      -2.361568      1.752901     -2.697668
  C      -2.361567      1.752901      1.057173
  C      -2.361568      3.630320     -0.820246
  C      -0.385132      1.752899     -0.820248
  O       0.755347      1.752898     -0.820249
  O      -2.466287     -1.252028     -0.820244
  O      -2.466286      1.752902     -3.825176
  O      -2.466285      4.757829     -0.820245
  O      -2.466286      1.752901      2.184681
  Br     -4.744390      1.752894     -0.820251
12
Coordinates from ORCA-job Mn_br_CO5_zero_singlet_triplet_singlet_min E -4291.759571078965
  Mn     -2.212646      1.752900     -0.820247
  C      -2.358973     -0.125538     -0.820245
  C      -2.358973      1.752902     -2.698685
  C      -2.358973      1.752901      1.058191
  C      -2.358973      3.631338     -0.820246
  C      -0.388145      1.752899     -0.820248
  O       0.751101      1.752897     -0.820249
  O      -2.465186     -1.252088     -0.820244
  O      -2.465186      1.752902     -3.825235
  O      -2.465184      4.757888     -0.820245
  O      -2.465185      1.752901      2.184741
  Br     -4.748732      1.752893     -0.820254
12
Coordinates from ORCA-job Mn_br_CO5_zero_singlet_triplet_singlet_min E -4291.759586742263
  Mn     -2.214041      1.752900     -0.820247
  C      -2.357303     -0.126347     -0.820245
  C      -2.357303      1.752902     -2.699495
  C      -2.357302      1.752901      1.059001
  C      -2.357303      3.632148     -0.820246
  C      -0.389138      1.752899     -0.820248
  O       0.750125      1.752897     -0.820249
  O      -2.465454     -1.252775     -0.820244
  O      -2.465454      1.752903     -3.825923
  O      -2.465452      4.758576     -0.820245
  O      -2.465452      1.752902      2.185429
  Br     -4.750978      1.752893     -0.820254
12
Coordinates from ORCA-job Mn_br_CO5_zero_singlet_triplet_singlet_min E -4291.759592397855
  Mn     -2.213431      1.752900     -0.820247
  C      -2.356317     -0.126729     -0.820245
  C      -2.356317      1.752902     -2.699876
  C      -2.356316      1.752901      1.059382
  C      -2.356317      3.632529     -0.820246
  C      -0.388392      1.752899     -0.820248
  O       0.751238      1.752896     -0.820249
  O      -2.466905     -1.253178     -0.820244
  O      -2.466906      1.752903     -3.826326
  O      -2.466903      4.758979     -0.820245
  O      -2.466902      1.752902      2.185832
  Br     -4.751588      1.752892     -0.820255
12
Coordinates from ORCA-job Mn_br_CO5_zero_singlet_triplet_singlet_min E -4291.759594573243
  Mn     -2.211903      1.752900     -0.820247
  C      -2.355880     -0.126899     -0.820246
  C      -2.355880      1.752902     -2.700046
  C      -2.355878      1.752901      1.059552
  C      -2.355879      3.632700     -0.820246
  C      -0.386738      1.752899     -0.820247
  O       0.753145      1.752896     -0.820248
  O      -2.468747     -1.253278     -0.820244
  O      -2.468748      1.752903     -3.826426
  O      -2.468745      4.759079     -0.820244
  O      -2.468743      1.752902      2.185932
  Br     -4.751059      1.752892     -0.820255
12
Coordinates from ORCA-job Mn_br_CO5_zero_singlet_triplet_singlet_min E -4291.759595787650
  Mn     -2.209880      1.752901     -0.820247
  C      -2.355657     -0.127076     -0.820246
  C      -2.355657      1.752902     -2.700224
  C      -2.355656      1.752902      1.059729
  C      -2.355657      3.632877     -0.820246
  C      -0.384417      1.752899     -0.820247
  O       0.755556      1.752896     -0.820248
  O      -2.470969     -1.253253     -0.820244
  O      -2.470970      1.752903     -3.826401
  O      -2.470967      4.759054     -0.820244
  O      -2.470965      1.752903      2.185907
  Br     -4.749817      1.752891     -0.820256
12
Coordinates from ORCA-job Mn_br_CO5_zero_singlet_triplet_singlet_min E -4291.759595870582
  Mn     -2.208676      1.752901     -0.820247
  C      -2.355660     -0.127209     -0.820246
  C      -2.355661      1.752902     -2.700357
  C      -2.355659      1.752902      1.059862
  C      -2.355660      3.633010     -0.820245
  C      -0.382886      1.752899     -0.820247
  O       0.756987      1.752895     -0.820248
  O      -2.472274     -1.253187     -0.820244
  O      -2.472275      1.752903     -3.826334
  O      -2.472271      4.758988     -0.820243
  O      -2.472270      1.752903      2.185840
  Br     -4.748752      1.752890     -0.820256
