12
Coordinates from ORCA-job Mn_CO_triplet_min E -4291.651607832671
  Mn     -2.381705      1.752900     -0.820247
  C      -2.381705     -0.187100     -0.820247
  C      -2.381705      1.752900     -2.760247
  C      -2.381705      1.752900      1.119753
  C      -2.381705      3.692900     -0.820247
  C      -0.441705      1.752900     -0.820247
  O       0.673695      1.752900     -0.820247
  O      -2.381705     -1.302500     -0.820247
  O      -2.381705      1.752900     -3.875647
  O      -2.381705      4.808300     -0.820247
  O      -2.381705      1.752900      2.235153
  Br     -4.691705      1.752900     -0.820247
12
Coordinates from ORCA-job Mn_CO_triplet_min E -4291.664197224817
  Mn     -2.368105      1.752900     -0.820247
  C      -2.393937     -0.180087     -0.820247
  C      -2.377237      1.752900     -2.782924
  C      -2.377238      1.752900      1.142429
  C      -2.393937      3.685887     -0.820247
  C      -0.408450      1.752900     -0.820247
  O       0.724239      1.752900     -0.820247
  O      -2.405430     -1.310194     -0.820247
  O      -2.383948      1.752900     -3.912581
  O      -2.405430      4.815993     -0.820247
  O      -2.383948      1.752900      2.272086
  Br     -4.721634      1.752899     -0.820247
12
Coordinates from ORCA-job Mn_CO_triplet_min E -4291.676453921727
  Mn     -2.333689      1.752900     -0.820247
  C      -2.414117     -0.162200     -0.820247
  C      -2.368692      1.752900     -2.830818
  C      -2.368692      1.752900      1.190324
  C      -2.414117      3.668000     -0.820247
  C      -0.333419      1.752900     -0.820247
  O       0.811362      1.752899     -0.820247
  O      -2.453920     -1.303372     -0.820247
  O      -2.394771      1.752900     -3.969802
  O      -2.453920      4.809172     -0.820248
  O      -2.394771      1.752900      2.329307
  Br     -4.776309      1.752900     -0.820246
12
Coordinates from ORCA-job Mn_CO_triplet_min E -4291.683145249300
  Mn     -2.294560      1.752900     -0.820247
  C      -2.426502     -0.142594     -0.820247
  C      -2.363766      1.752901     -2.876901
  C      -2.363767      1.752900      1.236407
  C      -2.426502      3.648393     -0.820247
  C      -0.255774      1.752899     -0.820247
  O       0.887888      1.752898     -0.820247
  O      -2.499362     -1.283671     -0.820247
  O      -2.415947      1.752901     -4.013507
  O      -2.499362      4.789471     -0.820247
  O      -2.415947      1.752901      2.373013
  Br     -4.821453      1.752898     -0.820247
12
Coordinates from ORCA-job Mn_CO_triplet_min E -4291.690081875137
  Mn     -2.252191      1.752900     -0.820247
  C      -2.428166     -0.124840     -0.820246
  C      -2.365157      1.752901     -2.921858
  C      -2.365157      1.752901      1.281364
  C      -2.428166      3.630640     -0.820246
  C      -0.176454      1.752899     -0.820248
  O       0.958950      1.752896     -0.820248
  O      -2.538095     -1.259130     -0.820246
  O      -2.451364      1.752902     -4.049423
  O      -2.538095      4.764929     -0.820246
  O      -2.451363      1.752903      2.408929
  Br     -4.859797      1.752895     -0.820250
12
Coordinates from ORCA-job Mn_CO_triplet_min E -4291.690417066053
  Mn     -2.232431      1.752900     -0.820247
  C      -2.418649     -0.121413     -0.820246
  C      -2.372086      1.752902     -2.938943
  C      -2.372086      1.752902      1.298449
  C      -2.418650      3.627213     -0.820246
  C      -0.143918      1.752898     -0.820248
  O       0.986508      1.752895     -0.820249
  O      -2.546248     -1.250634     -0.820246
  O      -2.480705      1.752903     -4.060733
  O      -2.546248      4.756434     -0.820245
  O      -2.480703      1.752903      2.420239
  Br     -4.869836      1.752893     -0.820253
12
Coordinates from ORCA-job Mn_CO_triplet_min E -4291.690642305495
  Mn     -2.231258      1.752900     -0.820247
  C      -2.408930     -0.125627     -0.820247
  C      -2.377912      1.752902     -2.934633
  C      -2.377912      1.752902      1.294140
  C      -2.408931      3.631427     -0.820247
  C      -0.147924      1.752898     -0.820247
  O       0.981529      1.752895     -0.820248
  O      -2.537301     -1.253467     -0.820247
  O      -2.494446      1.752903     -4.054983
  O      -2.537301      4.759267     -0.820246
  O      -2.494444      1.752904      2.414489
  Br     -4.860225      1.752893     -0.820251
12
Coordinates from ORCA-job Mn_CO_triplet_min E -4291.690946542326
  Mn     -2.220447      1.752900     -0.820247
  C      -2.380515     -0.135050     -0.820246
  C      -2.396357      1.752902     -2.926370
  C      -2.396357      1.752902      1.285877
  C      -2.380516      3.640850     -0.820245
  C      -0.149117      1.752898     -0.820248
  O       0.979500      1.752895     -0.820249
  O      -2.515097     -1.260529     -0.820245
  O      -2.544009      1.752903     -4.042543
  O      -2.515097      4.766329     -0.820244
  O      -2.544005      1.752904      2.402050
  Br     -4.833038      1.752893     -0.820256
12
Coordinates from ORCA-job Mn_CO_triplet_min E -4291.691118179965
  Mn     -2.204355      1.752900     -0.820246
  C      -2.360076     -0.138729     -0.820247
  C      -2.411043      1.752902     -2.926545
  C      -2.411043      1.752902      1.286053
  C      -2.360077      3.644529     -0.820247
  C      -0.137020      1.752898     -0.820247
  O       0.991593      1.752895     -0.820248
  O      -2.503495     -1.262924     -0.820247
  O      -2.589548      1.752904     -4.038229
  O      -2.503494      4.768724     -0.820247
  O      -2.589545      1.752904      2.397736
  Br     -4.816951      1.752891     -0.820252
12
Coordinates from ORCA-job Mn_CO_triplet_min E -4291.691381722946
  Mn     -2.159118      1.752900     -0.820245
  C      -2.312293     -0.144359     -0.820248
  C      -2.447606      1.752904     -2.927809
  C      -2.447605      1.752904      1.287318
  C      -2.312294      3.650158     -0.820247
  C      -0.101070      1.752898     -0.820246
  O       1.028930      1.752893     -0.820247
  O      -2.475581     -1.266850     -0.820249
  O      -2.707807      1.752906     -4.024347
  O      -2.475578      4.772650     -0.820249
  O      -2.707802      1.752907      2.383857
  Br     -4.777229      1.752888     -0.820253
12
Coordinates from ORCA-job Mn_CO_triplet_min E -4291.691465028325
  Mn     -2.148301      1.752900     -0.820245
  C      -2.306106     -0.142806     -0.820248
  C      -2.453644      1.752904     -2.929170
  C      -2.453644      1.752904      1.288678
  C      -2.306106      3.648605     -0.820248
  C      -0.092898      1.752897     -0.820246
  O       1.037824      1.752893     -0.820247
  O      -2.469524     -1.266023     -0.820250
  O      -2.731522      1.752907     -4.021850
  O      -2.469521      4.771823     -0.820249
  O      -2.731517      1.752908      2.381359
  Br     -4.770095      1.752885     -0.820251
12
Coordinates from ORCA-job Mn_CO_triplet_min E -4291.691590067865
  Mn     -2.130379      1.752900     -0.820246
  C      -2.297426     -0.137836     -0.820246
  C      -2.463161      1.752902     -2.931241
  C      -2.463160      1.752902      1.290748
  C      -2.297426      3.643636     -0.820246
  C      -0.083491      1.752899     -0.820247
  O       1.048129      1.752895     -0.820248
  O      -2.453190     -1.263082     -0.820247
  O      -2.771978      1.752904     -4.016034
  O      -2.453187      4.768882     -0.820246
  O      -2.771973      1.752905      2.375542
  Br     -4.757814      1.752891     -0.820254
12
Coordinates from ORCA-job Mn_CO_triplet_min E -4291.691639517153
  Mn     -2.123923      1.752900     -0.820246
  C      -2.291375     -0.135613     -0.820245
  C      -2.468489      1.752901     -2.931139
  C      -2.468488      1.752901      1.290646
  C      -2.291375      3.641413     -0.820245
  C      -0.084879      1.752899     -0.820248
  O       1.046685      1.752895     -0.820249
  O      -2.438641     -1.261871     -0.820245
  O      -2.792284      1.752903     -4.011341
  O      -2.438640      4.767671     -0.820245
  O      -2.792278      1.752904      2.370849
  Br     -4.751367      1.752895     -0.820257
12
Coordinates from ORCA-job Mn_CO_triplet_min E -4291.691687068348
  Mn     -2.121620      1.752900     -0.820246
  C      -2.283268     -0.133959     -0.820244
  C      -2.474063      1.752900     -2.930558
  C      -2.474062      1.752900      1.290065
  C      -2.283268      3.639759     -0.820244
  C      -0.094400      1.752899     -0.820248
  O       1.036752      1.752896     -0.820250
  O      -2.416782     -1.261327     -0.820244
  O      -2.810652      1.752902     -4.006310
  O      -2.416780      4.767127     -0.820243
  O      -2.810645      1.752903      2.365819
  Br     -4.746267      1.752896     -0.820262
12
Coordinates from ORCA-job Mn_CO_triplet_min E -4291.691713666752
  Mn     -2.124912      1.752900     -0.820245
  C      -2.279334     -0.133984     -0.820245
  C      -2.475554      1.752901     -2.931113
  C      -2.475554      1.752900      1.290620
  C      -2.279334      3.639784     -0.820244
  C      -0.103933      1.752899     -0.820248
  O       1.026978      1.752896     -0.820250
  O      -2.405001     -1.261873     -0.820244
  O      -2.812983      1.752902     -4.006310
  O      -2.405000      4.767673     -0.820243
  O      -2.812976      1.752903      2.365819
  Br     -4.747453      1.752895     -0.820261
12
Coordinates from ORCA-job Mn_CO_triplet_min E -4291.691739188408
  Mn     -2.128901      1.752900     -0.820245
  C      -2.274467     -0.134642     -0.820245
  C      -2.477168      1.752901     -2.933426
  C      -2.477169      1.752901      1.292934
  C      -2.274467      3.640442     -0.820245
  C      -0.113641      1.752899     -0.820248
  O       1.017242      1.752896     -0.820251
  O      -2.393790     -1.263049     -0.820245
  O      -2.814198      1.752903     -4.008604
  O      -2.393789      4.768849     -0.820244
  O      -2.814192      1.752904      2.368114
  Br     -4.750516      1.752894     -0.820260
12
Coordinates from ORCA-job Mn_CO_triplet_min E -4291.691760351317
  Mn     -2.131409      1.752900     -0.820244
  C      -2.270582     -0.135348     -0.820246
  C      -2.478443      1.752901     -2.937254
  C      -2.478444      1.752901      1.296762
  C      -2.270581      3.641148     -0.820245
  C      -0.120269      1.752898     -0.820248
  O       1.010839      1.752896     -0.820251
  O      -2.386290     -1.264247     -0.820247
  O      -2.815020      1.752904     -4.012626
  O      -2.386288      4.770046     -0.820246
  O      -2.815016      1.752905      2.372136
  Br     -4.753554      1.752893     -0.820257
12
Coordinates from ORCA-job Mn_CO_triplet_min E -4291.691782029267
  Mn     -2.132204      1.752899     -0.820244
  C      -2.266881     -0.136156     -0.820246
  C      -2.479877      1.752903     -2.943075
  C      -2.479878      1.752902      1.302583
  C      -2.266880      3.641955     -0.820246
  C      -0.125575      1.752898     -0.820248
  O       1.005945      1.752895     -0.820251
  O      -2.380085     -1.265596     -0.820247
  O      -2.817182      1.752906     -4.018384
  O      -2.380082      4.771395     -0.820246
  O      -2.817179      1.752907      2.377893
  Br     -4.755177      1.752889     -0.820255
12
Coordinates from ORCA-job Mn_CO_triplet_min E -4291.691810192377
  Mn     -2.131952      1.752899     -0.820244
  C      -2.264843     -0.137159     -0.820246
  C      -2.480403      1.752903     -2.951314
  C      -2.480406      1.752903      1.310821
  C      -2.264841      3.642957     -0.820246
  C      -0.130293      1.752897     -0.820248
  O       1.001706      1.752896     -0.820252
  O      -2.376734     -1.267056     -0.820247
  O      -2.817857      1.752907     -4.026749
  O      -2.376730      4.772855     -0.820247
  O      -2.817857      1.752908      2.386257
  Br     -4.754844      1.752886     -0.820251
12
Coordinates from ORCA-job Mn_CO_triplet_min E -4291.691859661766
  Mn     -2.130890      1.752898     -0.820244
  C      -2.264561     -0.138970     -0.820246
  C      -2.479438      1.752905     -2.966053
  C      -2.479442      1.752904      1.325559
  C      -2.264559      3.644767     -0.820246
  C      -0.137364      1.752897     -0.820249
  O       0.995228      1.752896     -0.820253
  O      -2.375936     -1.269246     -0.820247
  O      -2.815747      1.752910     -4.041965
  O      -2.375930      4.775044     -0.820247
  O      -2.815751      1.752911      2.401471
  Br     -4.750666      1.752882     -0.820247
12
Coordinates from ORCA-job Mn_CO_triplet_min E -4291.691936113155
  Mn     -2.129909      1.752897     -0.820244
  C      -2.267097     -0.142281     -0.820245
  C      -2.475233      1.752907     -2.992963
  C      -2.475239      1.752906      1.352466
  C      -2.267094      3.648076     -0.820245
  C      -0.151430      1.752896     -0.820250
  O       0.981846      1.752896     -0.820255
  O      -2.378236     -1.272775     -0.820245
  O      -2.807783      1.752914     -4.069962
  O      -2.378226      4.778571     -0.820246
  O      -2.807793      1.752914      2.429464
  Br     -4.738861      1.752875     -0.820240
12
Coordinates from ORCA-job Mn_CO_triplet_min E -4291.692012694019
  Mn     -2.133584      1.752897     -0.820244
  C      -2.277392     -0.144683     -0.820244
  C      -2.465206      1.752908     -3.014813
  C      -2.465214      1.752907      1.374313
  C      -2.277388      3.650478     -0.820245
  C      -0.163478      1.752896     -0.820251
  O       0.969952      1.752896     -0.820256
  O      -2.391388     -1.274724     -0.820244
  O      -2.785947      1.752917     -4.095072
  O      -2.391376      4.780519     -0.820245
  O      -2.785961      1.752917      2.454571
  Br     -4.728073      1.752868     -0.820235
12
Coordinates from ORCA-job Mn_CO_triplet_min E -4291.692114761927
  Mn     -2.143117      1.752897     -0.820245
  C      -2.296077     -0.146554     -0.820242
  C      -2.447100      1.752908     -3.038543
  C      -2.447108      1.752907      1.398041
  C      -2.296072      3.652349     -0.820243
  C      -0.179054      1.752896     -0.820253
  O       0.954107      1.752896     -0.820258
  O      -2.415358     -1.275539     -0.820241
  O      -2.748375      1.752918     -4.123789
  O      -2.415345      4.781336     -0.820242
  O      -2.748392      1.752917      2.483285
  Br     -4.713163      1.752866     -0.820236
12
Coordinates from ORCA-job Mn_CO_triplet_min E -4291.692198621106
  Mn     -2.155289      1.752898     -0.820244
  C      -2.311853     -0.146754     -0.820241
  C      -2.428984      1.752906     -3.057722
  C      -2.428991      1.752904      1.417220
  C      -2.311849      3.652550     -0.820242
  C      -0.196097      1.752898     -0.820253
  O       0.936635      1.752896     -0.820259
  O      -2.433646     -1.275008     -0.820239
  O      -2.716181      1.752915     -4.146210
  O      -2.433634      4.780804     -0.820241
  O      -2.716196      1.752915      2.505705
  Br     -4.698969      1.752872     -0.820239
12
Coordinates from ORCA-job Mn_CO_triplet_min E -4291.692292079947
  Mn     -2.165025      1.752899     -0.820243
  C      -2.319720     -0.143979     -0.820241
  C      -2.417249      1.752903     -3.060341
  C      -2.417252      1.752902      1.419841
  C      -2.319718      3.649777     -0.820241
  C      -0.201393      1.752899     -0.820252
  O       0.930738      1.752896     -0.820258
  O      -2.443082     -1.271840     -0.820240
  O      -2.703027      1.752911     -4.148885
  O      -2.443075      4.777638     -0.820241
  O      -2.703037      1.752911      2.508384
  Br     -4.693213      1.752882     -0.820248
12
Coordinates from ORCA-job Mn_CO_triplet_min E -4291.692434460399
  Mn     -2.170100      1.752900     -0.820241
  C      -2.312249     -0.138670     -0.820242
  C      -2.411044      1.752898     -3.065341
  C      -2.411043      1.752897      1.424847
  C      -2.312251      3.644469     -0.820241
  C      -0.206629      1.752900     -0.820251
  O       0.925137      1.752897     -0.820256
  O      -2.431984     -1.267162     -0.820242
  O      -2.726403      1.752904     -4.145558
  O      -2.431984      4.772961     -0.820241
  O      -2.726403      1.752905      2.505064
  Br     -4.680103      1.752899     -0.820265
12
Coordinates from ORCA-job Mn_CO_triplet_min E -4291.692525607653
  Mn     -2.165017      1.752901     -0.820239
  C      -2.297891     -0.132358     -0.820243
  C      -2.412427      1.752893     -3.058631
  C      -2.412421      1.752893      1.418142
  C      -2.297898      3.638158     -0.820242
  C      -0.191203      1.752901     -0.820248
  O       0.940496      1.752896     -0.820253
  O      -2.417947     -1.261523     -0.820245
  O      -2.773601      1.752898     -4.124729
  O      -2.417957      4.767323     -0.820243
  O      -2.773589      1.752900      2.484243
  Br     -4.675599      1.752916     -0.820280
12
Coordinates from ORCA-job Mn_CO_triplet_min E -4291.692631415950
  Mn     -2.163487      1.752901     -0.820237
  C      -2.292741     -0.131170     -0.820244
  C      -2.402402      1.752892     -3.083260
  C      -2.402396      1.752892      1.442772
  C      -2.292749      3.636968     -0.820242
  C      -0.195297      1.752901     -0.820246
  O       0.937135      1.752895     -0.820251
  O      -2.411848     -1.261264     -0.820246
  O      -2.798554      1.752899     -4.137173
  O      -2.411861      4.767062     -0.820244
  O      -2.798537      1.752902      2.496688
  Br     -4.662317      1.752919     -0.820283
12
Coordinates from ORCA-job Mn_CO_triplet_min E -4291.692768431126
  Mn     -2.169660      1.752899     -0.820238
  C      -2.304665     -0.132312     -0.820244
  C      -2.376507      1.752895     -3.115299
  C      -2.376502      1.752895      1.474808
  C      -2.304673      3.638108     -0.820242
  C      -0.199811      1.752899     -0.820246
  O       0.933373      1.752893     -0.820250
  O      -2.425332     -1.262993     -0.820246
  O      -2.790902      1.752905     -4.162584
  O      -2.425346      4.768788     -0.820244
  O      -2.790886      1.752907      2.522096
  Br     -4.664144      1.752913     -0.820277
12
Coordinates from ORCA-job Mn_CO_triplet_min E -4291.692821895996
  Mn     -2.170702      1.752898     -0.820238
  C      -2.308658     -0.135712     -0.820244
  C      -2.368152      1.752899     -3.123709
  C      -2.368150      1.752899      1.483213
  C      -2.308664      3.641506     -0.820242
  C      -0.200768      1.752896     -0.820246
  O       0.932330      1.752892     -0.820249
  O      -2.427696     -1.266255     -0.820246
  O      -2.788478      1.752910     -4.168527
  O      -2.427707      4.772048     -0.820244
  O      -2.788465      1.752912      2.528036
  Br     -4.669943      1.752902     -0.820269
12
Coordinates from ORCA-job Mn_CO_triplet_min E -4291.692856057382
  Mn     -2.175210      1.752897     -0.820239
  C      -2.314498     -0.139346     -0.820244
  C      -2.357370      1.752902     -3.128390
  C      -2.357370      1.752902      1.487889
  C      -2.314502      3.645139     -0.820243
  C      -0.205629      1.752895     -0.820245
  O       0.927153      1.752890     -0.820248
  O      -2.430248     -1.269697     -0.820245
  O      -2.782308      1.752915     -4.171070
  O      -2.430257      4.775489     -0.820244
  O      -2.782297      1.752916      2.530574
  Br     -4.672518      1.752893     -0.820262
12
Coordinates from ORCA-job Mn_CO_triplet_min E -4291.692876629125
  Mn     -2.176925      1.752897     -0.820240
  C      -2.315249     -0.141550     -0.820244
  C      -2.354301      1.752904     -3.119735
  C      -2.354303      1.752905      1.479232
  C      -2.315253      3.647343     -0.820243
  C      -0.205299      1.752894     -0.820245
  O       0.927130      1.752890     -0.820247
  O      -2.427025     -1.271880     -0.820245
  O      -2.786047      1.752917     -4.159517
  O      -2.427032      4.777672     -0.820243
  O      -2.786036      1.752919      2.519020
  Br     -4.674716      1.752887     -0.820260
12
Coordinates from ORCA-job Mn_CO_triplet_min E -4291.692884938390
  Mn     -2.181681      1.752897     -0.820240
  C      -2.319112     -0.142485     -0.820244
  C      -2.348768      1.752904     -3.114695
  C      -2.348770      1.752904      1.474191
  C      -2.319115      3.648278     -0.820243
  C      -0.209793      1.752894     -0.820245
  O       0.922585      1.752890     -0.820247
  O      -2.428061     -1.273041     -0.820244
  O      -2.779831      1.752916     -4.154831
  O      -2.428067      4.778834     -0.820243
  O      -2.779819      1.752918      2.514334
  Br     -4.674622      1.752888     -0.820258
12
Coordinates from ORCA-job Mn_CO_triplet_min E -4291.692886414118
  Mn     -2.180468      1.752897     -0.820240
  C      -2.317239     -0.142020     -0.820244
  C      -2.350667      1.752903     -3.110493
  C      -2.350669      1.752903      1.469989
  C      -2.317242      3.647813     -0.820243
  C      -0.208175      1.752895     -0.820245
  O       0.924255      1.752891     -0.820247
  O      -2.426368     -1.272664     -0.820245
  O      -2.784062      1.752915     -4.149779
  O      -2.426375      4.778456     -0.820243
  O      -2.784050      1.752916      2.509281
  Br     -4.673996      1.752891     -0.820258
12
Coordinates from ORCA-job Mn_CO_triplet_min E -4291.692886912007
  Mn     -2.180522      1.752897     -0.820240
  C      -2.317674     -0.141759     -0.820244
  C      -2.349896      1.752902     -3.111020
  C      -2.349899      1.752902      1.470516
  C      -2.317678      3.647552     -0.820243
  C      -0.208456      1.752895     -0.820245
  O       0.924026      1.752892     -0.820247
  O      -2.427668     -1.272383     -0.820245
  O      -2.782943      1.752914     -4.150487
  O      -2.427675      4.778176     -0.820244
  O      -2.782932      1.752916      2.509989
  Br     -4.673736      1.752893     -0.820257
