28
Coordinates from ORCA-job Mn_by_singlet_min
  C   -3.20241296264873      0.31379655787368     -0.08858667434174
  C   -1.15903371506611      1.31784423978834     -0.49029112142167
  C   -1.65986953566318      2.57334958372583     -0.19321234045495
  C   -2.99392062701123      2.68944993180600      0.17121492188008
  C   -3.77064174385803      1.54517100022989      0.22595361724449
  C   -3.94230180189313     -0.95398328213390     -0.07028587152262
  C   -3.81705603928194     -3.23500093629301     -0.43053373946145
  C   -5.14851999588143     -3.41217139374917     -0.09720052308601
  C   -5.89871203858769     -2.30121375346074      0.26178128436045
  C   -5.28607188974324     -1.06022773022658      0.27738857956384
  H   -0.12874776227707      1.19143090808950     -0.78705556528272
  H   -1.01289966093241      3.43686266181047     -0.25520688350134
  H   -3.42309127031510      3.65448349247664      0.40483989061529
  H   -4.81219658513759      1.61034750176308      0.50141704900358
  H   -3.20454222971178     -4.07404025032833     -0.72464872006005
  H   -5.58122785539474     -4.40202257337912     -0.12621381783489
  H   -6.94356907834962     -2.39904400100324      0.52386111138787
  H   -5.84920718102912     -0.18140301509076      0.55221442180960
  N   -3.22242957775644     -2.03873812213831     -0.42236174068213
  N   -1.90549233419248      0.21053777634986     -0.44429421377281
  Mn  -1.28979992704050     -1.66513123192171     -1.04939058452913
  C   0.31076554073599     -1.11491274820938     -1.72027019014210
  C   -1.00203628761222     -3.32825576317388     -1.73415639559868
  C   -0.58154338687945     -2.08455280187769      0.55601696582855
  Br  -2.35342021418645     -1.05484461143453     -3.28452925101182
  O   -0.12884406557261     -2.34961693972772      1.57709504922707
  O   1.31349836595789     -0.76221784450738     -2.14285815080757
  O   -0.83424052067150     -4.37141960525784     -2.17180513740914
