28
Coordinates from ORCA-job Mn_by_triplet_min
  C   -3.20936601208337      0.29054944098876     -0.08069128610652
  C   -1.16473899298827      1.34239210016843     -0.62805897399831
  C   -1.61476978353879      2.56819866257709     -0.21902823622708
  C   -2.93576840045380      2.66389775652232      0.29044028916930
  C   -3.71119259627974      1.54130212428787      0.35146525924224
  C   -3.93153437960826     -0.92307341301686     -0.06833864767821
  C   -3.87777520280475     -3.21156526986102     -0.60781464072647
  C   -5.17011542257078     -3.40643262082589     -0.18386417196576
  C   -5.87554442017240     -2.29827996140476      0.33747284619367
  C   -5.26209304119181     -1.07790139690823      0.39208722676597
  H   -0.16642427966937      1.23781233483711     -1.02829543815608
  H   -0.97208484056652      3.43236126755441     -0.29633732096774
  H   -3.32655169380978      3.61659314700309      0.62195409468787
  H   -4.72160066337427      1.60044927608688      0.72922439416357
  H   -3.30855058209837     -4.03234820311608     -1.02261547303986
  H   -5.62382098212959     -4.38322747993631     -0.26084398171651
  H   -6.89315161776948     -2.41269821714102      0.68698239850959
  H   -5.79003644577935     -0.22112746058528      0.78465475585860
  N   -3.25416977952813     -2.02457231064226     -0.55717212542123
  N   -1.90757048657402      0.21652509380398     -0.57316122369363
  Mn  -1.34925889329780     -1.62132102240216     -1.15508567457582
  C   0.30588278057684     -1.07928957130557     -1.81471279023584
  C   -0.82053879326578     -3.37806758499487     -1.65025776523190
  C   -0.90448242888174     -1.92078104844143      0.66983831659379
  Br  -2.17719139432373     -1.51971993556946     -3.46539487910411
  O   -0.71072141593020     -2.07453697447781      1.77324967947276
  O   1.31010838360144     -0.76283602821898     -2.24285968152202
  O   -0.46450299548815     -4.40782565498194     -1.96395498029025
