9
Coordinates from ORCA-job Cobalt_acetate_plus1_singlet_triplet_singlet_min
  C   -0.72982204192286      1.77697295083428     -0.02023681228183
  H   -0.41668185497651      1.94894629557832      1.00421843481096
  H   -0.12724836682908      2.35191116748845     -0.74632052003437
  H   -1.80533069224108      1.89903398463865     -0.17182841961217
  Co  -0.41017210379511      0.09122635180327     -0.77390555597277
  O   -1.47085837307920     -1.10866947506326     -0.26713228850244
  H   -1.57374815585045     -1.45062652068658      0.63528995306931
  C   1.12421255427386     -0.22088309512232      0.11004742328928
  O   2.04455803442043     -0.42734865947081      0.71341378523403
