9
Coordinates from ORCA-job Cobalt_INT2_singlet_min E -1611.419527562672
  C      -0.783025      1.657495      0.079214
  H      -0.648736      1.817627      1.152179
  H      -0.040391      2.171210     -0.542367
  H      -1.805645      1.834050     -0.245668
  Co     -0.305103     -0.204959     -0.166912
  O      -1.796162     -0.862140      0.341588
  H      -2.431810     -1.253807     -0.281982
  C       1.667224     -0.154131     -0.018260
  O       2.778557     -0.144782      0.165754
9
Coordinates from ORCA-job Cobalt_INT2_singlet_min E -1611.423576605838
  C      -0.770578      1.645483      0.080675
  H      -0.624538      1.824486      1.145408
  H      -0.047966      2.157507     -0.556053
  H      -1.802178      1.784038     -0.231619
  Co     -0.294107     -0.220900     -0.135869
  O      -1.802014     -0.882401      0.321431
  H      -2.481419     -1.197981     -0.294142
  C       1.676707     -0.135743     -0.009700
  O       2.781001     -0.113927      0.163415
9
Coordinates from ORCA-job Cobalt_INT2_singlet_min E -1611.429201735820
  C      -0.731296      1.625949      0.081141
  H      -0.606197      1.819884      1.143753
  H      -0.012592      2.143895     -0.542409
  H      -1.761014      1.711540     -0.251817
  Co     -0.292593     -0.257499     -0.076068
  O      -1.827393     -0.919013      0.286935
  H      -2.571694     -1.139423     -0.290560
  C       1.670004     -0.092710     -0.007656
  O       2.767685     -0.032059      0.140228
9
Coordinates from ORCA-job Cobalt_INT2_singlet_min E -1611.432007184431
  C      -0.669739      1.598772      0.080763
  H      -0.555098      1.803156      1.142659
  H       0.042346      2.131525     -0.536980
  H      -1.699422      1.639276     -0.261642
  Co     -0.306192     -0.307414     -0.035515
  O      -1.865948     -0.949100      0.236358
  H      -2.672997     -1.108737     -0.271293
  C       1.632795     -0.033481     -0.000894
  O       2.729164      0.086566      0.130091
9
Coordinates from ORCA-job Cobalt_INT2_singlet_min E -1611.432983417630
  C      -0.669963      1.584206      0.079843
  H      -0.529406      1.802919      1.132298
  H       0.014926      2.119596     -0.565255
  H      -1.710906      1.610209     -0.229683
  Co     -0.293265     -0.319303     -0.046407
  O      -1.850685     -0.971835      0.204115
  H      -2.694224     -1.040158     -0.256777
  C       1.637988     -0.026699      0.015757
  O       2.730445      0.101627      0.149655
9
Coordinates from ORCA-job Cobalt_INT2_singlet_min E -1611.434613956897
  C      -0.657805      1.572441      0.079963
  H      -0.508929      1.803914      1.129544
  H       0.013503      2.115785     -0.579730
  H      -1.702940      1.605264     -0.216039
  Co     -0.291284     -0.334067     -0.077899
  O      -1.836758     -1.000280      0.165267
  H      -2.722451     -1.011030     -0.217796
  C       1.623398     -0.021489      0.032179
  O       2.718175      0.130025      0.168056
9
Coordinates from ORCA-job Cobalt_INT2_singlet_min E -1611.436227573986
  C      -0.657404      1.566617      0.079885
  H      -0.504963      1.807726      1.128845
  H       0.008409      2.113092     -0.587845
  H      -1.703692      1.624845     -0.210011
  Co     -0.287360     -0.337910     -0.126601
  O      -1.809228     -1.027446      0.131322
  H      -2.728660     -0.992686     -0.168229
  C       1.610312     -0.029311      0.048740
  O       2.707495      0.135636      0.187441
9
Coordinates from ORCA-job Cobalt_INT2_singlet_min E -1611.437588799998
  C      -0.665472      1.561417      0.077881
  H      -0.501802      1.806319      1.124882
  H      -0.005643      2.106257     -0.598505
  H      -1.713849      1.638870     -0.199622
  Co     -0.278667     -0.335348     -0.174951
  O      -1.779867     -1.046022      0.092575
  H      -2.723201     -0.963771     -0.114484
  C       1.603900     -0.038316      0.063773
  O       2.699510      0.131157      0.211998
9
Coordinates from ORCA-job Cobalt_INT2_singlet_min E -1611.438512291859
  C      -0.668799      1.551495      0.074953
  H      -0.490285      1.797062      1.119367
  H      -0.016893      2.097346     -0.611873
  H      -1.720565      1.639860     -0.185726
  Co     -0.271096     -0.339839     -0.215899
  O      -1.757323     -1.062963      0.054832
  H      -2.729364     -0.924769     -0.068579
  C       1.596878     -0.037890      0.085813
  O       2.692356      0.140262      0.230657
9
Coordinates from ORCA-job Cobalt_INT2_singlet_min E -1611.440167870637
  C      -0.683029      1.551633      0.066275
  H      -0.484273      1.775629      1.113503
  H      -0.020305      2.090983     -0.619763
  H      -1.731937      1.681109     -0.180912
  Co     -0.270872     -0.325460     -0.296219
  O      -1.724271     -1.060616      0.018351
  H      -2.690571     -0.930374      0.009987
  C       1.572448     -0.046119      0.105137
  O       2.667719      0.123779      0.267187
9
Coordinates from ORCA-job Cobalt_INT2_singlet_min E -1611.442286811890
  C      -0.713574      1.552580      0.056015
  H      -0.472111      1.753050      1.098346
  H      -0.057205      2.083619     -0.644206
  H      -1.767475      1.695902     -0.155704
  Co     -0.258432     -0.297641     -0.364201
  O      -1.687445     -1.052241     -0.022910
  H      -2.633031     -0.897889      0.079935
  C       1.568223     -0.054604      0.112754
  O       2.655959      0.077786      0.323517
9
Coordinates from ORCA-job Cobalt_INT2_singlet_min E -1611.444738866556
  C      -0.748921      1.557145      0.045518
  H      -0.480021      1.730404      1.082849
  H      -0.094374      2.082473     -0.656333
  H      -1.804888      1.703229     -0.146776
  Co     -0.242211     -0.258860     -0.422909
  O      -1.651610     -1.041679     -0.065511
  H      -2.565056     -0.861412      0.158855
  C       1.572510     -0.065379      0.112559
  O       2.649479      0.014642      0.375294
9
Coordinates from ORCA-job Cobalt_INT2_singlet_min E -1611.447459060126
  C      -0.783953      1.569428      0.034978
  H      -0.497419      1.715941      1.068861
  H      -0.133156      2.099358     -0.663222
  H      -1.844205      1.703078     -0.152500
  Co     -0.224941     -0.205731     -0.473516
  O      -1.618749     -1.032015     -0.110461
  H      -2.486573     -0.838477      0.245998
  C       1.580435     -0.081752      0.109602
  O       2.643471     -0.069267      0.423806
9
Coordinates from ORCA-job Cobalt_INT2_singlet_min E -1611.450394554273
  C      -0.801580      1.584669      0.024272
  H      -0.503729      1.707336      1.057335
  H      -0.155691      2.129677     -0.668113
  H      -1.863775      1.711256     -0.163971
  Co     -0.219662     -0.154797     -0.532695
  O      -1.594358     -1.022382     -0.153501
  H      -2.403465     -0.858942      0.339461
  C       1.564180     -0.097402      0.110131
  O       2.612989     -0.138853      0.470626
9
Coordinates from ORCA-job Cobalt_INT2_singlet_min E -1611.453033116090
  C      -0.791785      1.628647      0.013135
  H      -0.503950      1.746809      1.052976
  H      -0.180169      2.237747     -0.667004
  H      -1.859202      1.703520     -0.206522
  Co     -0.229366     -0.077903     -0.580307
  O      -1.572040     -1.056933     -0.187315
  H      -2.324291     -0.952320      0.441181
  C       1.531021     -0.129092      0.098741
  O       2.564691     -0.239910      0.518662
9
Coordinates from ORCA-job Cobalt_INT2_singlet_min E -1611.456561470384
  C      -0.799020      1.636775      0.004262
  H      -0.500326      1.743784      1.042837
  H      -0.179546      2.242854     -0.676400
  H      -1.862981      1.747518     -0.196502
  Co     -0.241196     -0.048336     -0.653273
  O      -1.542104     -1.040632     -0.214846
  H      -2.201709     -0.999155      0.509911
  C       1.472900     -0.144056      0.108146
  O       2.488891     -0.278188      0.559411
9
Coordinates from ORCA-job Cobalt_INT2_singlet_min E -1611.459981811558
  C      -0.793416      1.654511     -0.002990
  H      -0.496748      1.778369      1.036452
  H      -0.174026      2.260092     -0.689775
  H      -1.852502      1.802909     -0.175580
  Co     -0.272587     -0.019230     -0.734520
  O      -1.483004     -1.057171     -0.234337
  H      -2.029485     -1.062986      0.568654
  C       1.375500     -0.169390      0.108938
  O       2.361176     -0.326541      0.606705
9
Coordinates from ORCA-job Cobalt_INT2_singlet_min E -1611.462624677520
  C      -0.782754      1.696608     -0.012543
  H      -0.483344      1.834371      1.024362
  H      -0.177458      2.313907     -0.702154
  H      -1.846929      1.840045     -0.180661
  Co     -0.308681      0.034873     -0.780614
  O      -1.440804     -1.083140     -0.253565
  H      -1.845083     -1.167192      0.628462
  C       1.282540     -0.200720      0.107597
  O       2.237422     -0.408188      0.652664
9
Coordinates from ORCA-job Cobalt_INT2_singlet_min E -1611.463531460261
  C      -0.719580      1.737259     -0.015880
  H      -0.417976      1.917651      1.012500
  H      -0.147196      2.369902     -0.714306
  H      -1.794096      1.852145     -0.156481
  Co     -0.393892      0.049273     -0.804238
  O      -1.410218     -1.168146     -0.271212
  H      -1.704394     -1.301803      0.641607
  C       1.150146     -0.197071      0.090741
  O       2.072115     -0.398647      0.700814
9
Coordinates from ORCA-job Cobalt_INT2_singlet_min E -1611.464394514795
  C      -0.751516      1.766642     -0.024438
  H      -0.441742      1.923064      1.005152
  H      -0.161496      2.381906     -0.726963
  H      -1.826662      1.880057     -0.184198
  Co     -0.382202      0.098879     -0.800319
  O      -1.413946     -1.126595     -0.268781
  H      -1.582345     -1.335782      0.668134
  C       1.144286     -0.228857      0.104973
  O       2.050531     -0.498750      0.709987
9
Coordinates from ORCA-job Cobalt_INT2_singlet_min E -1611.464599738963
  C      -0.747503      1.765237     -0.024978
  H      -0.433459      1.915530      1.004501
  H      -0.152951      2.370594     -0.732077
  H      -1.822001      1.879977     -0.179932
  Co     -0.383117      0.091523     -0.792987
  O      -1.439094     -1.111615     -0.266712
  H      -1.601117     -1.361664      0.657829
  C       1.149951     -0.217004      0.109310
  O       2.064200     -0.472013      0.708592
9
Coordinates from ORCA-job Cobalt_INT2_singlet_min E -1611.464517686274
  C      -0.721640      1.787070     -0.027988
  H      -0.371641      1.966273      0.986933
  H      -0.156399      2.379418     -0.772964
  H      -1.803248      1.890138     -0.138163
  Co     -0.416124      0.096522     -0.788026
  O      -1.461698     -1.111830     -0.269185
  H      -1.528084     -1.475308      0.622142
  C       1.091833     -0.214759      0.128611
  O       2.001911     -0.456960      0.742187
9
Coordinates from ORCA-job Cobalt_INT2_singlet_min E -1611.464530766553
  C      -0.736040      1.776920     -0.024850
  H      -0.465970      1.921931      1.011994
  H      -0.094077      2.340593     -0.716730
  H      -1.801137      1.912802     -0.205990
  Co     -0.407478      0.078555     -0.763318
  O      -1.482272     -1.096545     -0.250194
  H      -1.582165     -1.445098      0.646967
  C       1.137037     -0.204646      0.103868
  O       2.067011     -0.423949      0.681798
9
Coordinates from ORCA-job Cobalt_INT2_singlet_min E -1611.464757643116
  C      -0.737533      1.775871     -0.024323
  H      -0.432849      1.934377      1.005516
  H      -0.133491      2.364627     -0.737960
  H      -1.813653      1.891537     -0.181431
  Co     -0.396231      0.088774     -0.776155
  O      -1.462376     -1.106478     -0.264740
  H      -1.584080     -1.419685      0.646167
  C       1.136433     -0.216833      0.112774
  O       2.058691     -0.451627      0.703698
9
Coordinates from ORCA-job Cobalt_INT2_singlet_min E -1611.464764385216
  C      -0.733018      1.779656     -0.024570
  H      -0.433674      1.939611      1.005742
  H      -0.123511      2.363815     -0.735022
  H      -1.806402      1.900604     -0.186234
  Co     -0.406784      0.089593     -0.775955
  O      -1.464542     -1.109098     -0.260269
  H      -1.567479     -1.441678      0.645627
  C       1.123671     -0.216251      0.110670
  O       2.046646     -0.445690      0.703556
9
Coordinates from ORCA-job Cobalt_INT2_singlet_min E -1611.464774472165
  C      -0.732265      1.780256     -0.023721
  H      -0.431388      1.943522      1.006006
  H      -0.124036      2.362670     -0.738167
  H      -1.806745      1.900107     -0.183936
  Co     -0.407009      0.089395     -0.773602
  O      -1.466091     -1.108967     -0.261586
  H      -1.568535     -1.445011      0.642784
  C       1.123634     -0.218090      0.111725
  O       2.047344     -0.443320      0.704044
9
Coordinates from ORCA-job Cobalt_INT2_singlet_min E -1611.464791874041
  C      -0.731456      1.780268     -0.021605
  H      -0.430267      1.947346      1.007305
  H      -0.122916      2.359180     -0.739887
  H      -1.806303      1.900227     -0.184193
  Co     -0.408268      0.090064     -0.770377
  O      -1.468748     -1.108575     -0.262813
  H      -1.572168     -1.449329      0.640324
  C       1.124973     -0.221868      0.110983
  O       2.050062     -0.436750      0.703808
9
Coordinates from ORCA-job Cobalt_INT2_singlet_min E -1611.464797081853
  C      -0.730617      1.779684     -0.020542
  H      -0.425286      1.949449      1.006657
  H      -0.124692      2.356907     -0.742549
  H      -1.805774      1.899262     -0.180857
  Co     -0.409538      0.091064     -0.770664
  O      -1.470016     -1.108166     -0.264341
  H      -1.572416     -1.451485      0.637990
  C       1.124616     -0.223363      0.110752
  O       2.048631     -0.432789      0.707100
9
Coordinates from ORCA-job Cobalt_INT2_singlet_min E -1611.464800262326
  C      -0.730240      1.778359     -0.020139
  H      -0.421025      1.949192      1.005627
  H      -0.126548      2.354790     -0.744236
  H      -1.805507      1.898044     -0.177126
  Co     -0.409903      0.091357     -0.772137
  O      -1.470721     -1.107757     -0.265699
  H      -1.573564     -1.450623      0.636599
  C       1.125023     -0.222962      0.110354
  O       2.047394     -0.429835      0.710303
9
Coordinates from ORCA-job Cobalt_INT2_singlet_min E -1611.464801789118
  C      -0.730089      1.777593     -0.020182
  H      -0.418851      1.948820      1.004895
  H      -0.127326      2.353625     -0.745113
  H      -1.805429      1.897832     -0.174705
  Co     -0.409987      0.091326     -0.773193
  O      -1.470876     -1.107797     -0.266392
  H      -1.573768     -1.450052      0.635980
  C       1.124969     -0.222135      0.110200
  O       2.046266     -0.428648      0.712054
9
Coordinates from ORCA-job Cobalt_INT2_singlet_min E -1611.464803098702
  C      -0.729973      1.777134     -0.020265
  H      -0.417501      1.948762      1.004397
  H      -0.127525      2.352672     -0.745806
  H      -1.805401      1.898240     -0.172909
  Co     -0.410026      0.091238     -0.773770
  O      -1.470895     -1.108157     -0.266883
  H      -1.573775     -1.450120      0.635539
  C       1.124682     -0.221348      0.110164
  O       2.045323     -0.427859      0.713079
9
Coordinates from ORCA-job Cobalt_INT2_singlet_min E -1611.464804273656
  C      -0.729839      1.776958     -0.020238
  H      -0.416559      1.949144      1.004122
  H      -0.127427      2.351818     -0.746493
  H      -1.805364      1.899014     -0.171647
  Co     -0.410114      0.091207     -0.773853
  O      -1.470851     -1.108731     -0.267286
  H      -1.573725     -1.450853      0.635095
  C       1.124204     -0.220803      0.110258
  O       2.044585     -0.427192      0.713587
