9
Coordinates from ORCA-job Cobalt_acetate_plus1_singlet_triplet_triplet_min E -1611.483554350980
  C      -0.783025      1.657495      0.079214
  H      -0.648736      1.817627      1.152179
  H      -0.040391      2.171210     -0.542367
  H      -1.805645      1.834050     -0.245668
  Co     -0.305103     -0.204959     -0.166912
  O      -1.796162     -0.862140      0.341588
  H      -2.431810     -1.253807     -0.281982
  C       1.667224     -0.154131     -0.018260
  O       2.778557     -0.144782      0.165754
9
Coordinates from ORCA-job Cobalt_acetate_plus1_singlet_triplet_triplet_min E -1611.484238633503
  C      -0.786857      1.664396      0.082979
  H      -0.668294      1.824163      1.154400
  H      -0.033226      2.164992     -0.531399
  H      -1.802356      1.828296     -0.261336
  Co     -0.302312     -0.202217     -0.146574
  O      -1.797402     -0.867673      0.345006
  H      -2.429105     -1.246105     -0.287121
  C       1.675403     -0.155753     -0.020458
  O       2.779059     -0.149535      0.148048
9
Coordinates from ORCA-job Cobalt_acetate_plus1_singlet_triplet_triplet_min E -1611.484662966136
  C      -0.794073      1.673947      0.088736
  H      -0.700812      1.834891      1.160579
  H      -0.021515      2.154737     -0.514951
  H      -1.799905      1.817355     -0.287475
  Co     -0.298152     -0.200203     -0.113296
  O      -1.801223     -0.875013      0.351086
  H      -2.429104     -1.230462     -0.296571
  C       1.688992     -0.158735     -0.024080
  O       2.790701     -0.155954      0.119518
9
Coordinates from ORCA-job Cobalt_acetate_plus1_singlet_triplet_triplet_min E -1611.485047415342
  C      -0.804539      1.683201      0.095705
  H      -0.746680      1.848485      1.168329
  H      -0.006888      2.140287     -0.491778
  H      -1.796286      1.800210     -0.322834
  Co     -0.291848     -0.201721     -0.068163
  O      -1.807509     -0.883003      0.359597
  H      -2.432180     -1.202374     -0.309199
  C       1.708071     -0.162811     -0.028523
  O       2.812768     -0.161710      0.080413
9
Coordinates from ORCA-job Cobalt_acetate_plus1_singlet_triplet_triplet_min E -1611.485413320882
  C      -0.818120      1.687325      0.102603
  H      -0.810040      1.862894      1.174870
  H       0.009716      2.122978     -0.458225
  H      -1.788742      1.776010     -0.369135
  Co     -0.281393     -0.210893     -0.011009
  O      -1.814242     -0.892337      0.371121
  H      -2.439672     -1.153030     -0.322491
  C       1.733396     -0.168134     -0.033464
  O       2.844005     -0.164250      0.029276
9
Coordinates from ORCA-job Cobalt_acetate_plus1_singlet_triplet_triplet_min E -1611.485857744896
  C      -0.835413      1.679513      0.108187
  H      -0.903324      1.872499      1.175285
  H       0.028650      2.102676     -0.405152
  H      -1.770809      1.738490     -0.434715
  Co     -0.262649     -0.233125      0.063714
  O      -1.817619     -0.906674      0.385693
  H      -2.454570     -1.059403     -0.330035
  C       1.767624     -0.174182     -0.039596
  O       2.883018     -0.159232     -0.039836
9
Coordinates from ORCA-job Cobalt_acetate_plus1_singlet_triplet_triplet_min E -1611.486333907742
  C      -0.850581      1.657970      0.110484
  H      -0.981782      1.874209      1.167395
  H       0.033836      2.083804     -0.364155
  H      -1.755551      1.693770     -0.484705
  Co     -0.240414     -0.266005      0.132592
  O      -1.817871     -0.922369      0.388248
  H      -2.472003     -0.937456     -0.328825
  C       1.801306     -0.178846     -0.039537
  O       2.917968     -0.144514     -0.097951
9
Coordinates from ORCA-job Cobalt_acetate_plus1_singlet_triplet_triplet_min E -1611.486604830168
  C      -0.857424      1.621995      0.107254
  H      -1.034654      1.867488      1.152124
  H       0.025340      2.078901     -0.341016
  H      -1.745539      1.661703     -0.514364
  Co     -0.218861     -0.309708      0.180104
  O      -1.813740     -0.939206      0.375686
  H      -2.489880     -0.814631     -0.309917
  C       1.827226     -0.184167     -0.032100
  O       2.942442     -0.121812     -0.134225
9
Coordinates from ORCA-job Cobalt_acetate_plus1_singlet_triplet_triplet_min E -1611.483667617221
  C      -0.838374      1.615561      0.096719
  H      -0.949358      1.842149      1.144554
  H       0.008345      2.098015     -0.388620
  H      -1.756631      1.693891     -0.456023
  Co     -0.235738     -0.300138      0.100965
  O      -1.810546     -0.918312      0.354433
  H      -2.472182     -0.880420     -0.277788
  C       1.791170     -0.175145     -0.031512
  O       2.898222     -0.115039     -0.059181
9
Coordinates from ORCA-job Cobalt_acetate_plus1_singlet_triplet_triplet_min E -1611.486570296749
  C      -0.838980      1.617881      0.098160
  H      -0.943149      1.842106      1.150213
  H       0.005678      2.090446     -0.397440
  H      -1.764165      1.679237     -0.456124
  Co     -0.229573     -0.295694      0.102508
  O      -1.794472     -0.937298      0.369836
  H      -2.503480     -0.852391     -0.295948
  C       1.798119     -0.170196     -0.037800
  O       2.904932     -0.113527     -0.049858
9
Coordinates from ORCA-job Cobalt_acetate_plus1_singlet_triplet_triplet_min E -1611.486647009309
  C      -0.846895      1.610275      0.101022
  H      -1.051694      1.846024      1.158320
  H       0.048123      2.084441     -0.327421
  H      -1.735051      1.667804     -0.542472
  Co     -0.219464     -0.314384      0.168059
  O      -1.803761     -0.944832      0.374502
  H      -2.504841     -0.804093     -0.279532
  C       1.817488     -0.177895     -0.036111
  O       2.931005     -0.106778     -0.132823
9
Coordinates from ORCA-job Cobalt_acetate_plus1_singlet_triplet_triplet_min E -1611.486120549517
  C      -0.851842      1.575990      0.100717
  H      -1.013273      1.850964      1.127648
  H      -0.014350      2.068514     -0.366315
  H      -1.742560      1.615419     -0.485378
  Co     -0.201065     -0.353162      0.209703
  O      -1.811811     -0.951961      0.325329
  H      -2.512416     -0.687868     -0.287002
  C       1.837022     -0.176815      0.002623
  O       2.945205     -0.080519     -0.143780
9
Coordinates from ORCA-job Cobalt_acetate_plus1_singlet_triplet_triplet_min E -1611.487109208945
  C      -0.836957      1.607247      0.098663
  H      -0.969595      1.841713      1.147362
  H       0.014211      2.085796     -0.379853
  H      -1.750632      1.665962     -0.478500
  Co     -0.224013     -0.309096      0.139830
  O      -1.800589     -0.945573      0.355825
  H      -2.512039     -0.816676     -0.286980
  C       1.802787     -0.169998     -0.029346
  O       2.911736     -0.098812     -0.083456
9
Coordinates from ORCA-job Cobalt_acetate_plus1_singlet_triplet_triplet_min E -1611.487227510501
  C      -0.837583      1.600463      0.098230
  H      -1.003660      1.839068      1.149298
  H       0.029156      2.082828     -0.358697
  H      -1.739521      1.658157     -0.506870
  Co     -0.219809     -0.318373      0.161960
  O      -1.801606     -0.951336      0.353345
  H      -2.517998     -0.789393     -0.276999
  C       1.808109     -0.169999     -0.027444
  O       2.917821     -0.090851     -0.109277
9
Coordinates from ORCA-job Cobalt_acetate_plus1_singlet_triplet_triplet_min E -1611.487331433971
  C      -0.833752      1.603405      0.098733
  H      -0.993982      1.842118      1.149580
  H       0.029810      2.082396     -0.363004
  H      -1.736910      1.658203     -0.502088
  Co     -0.222069     -0.314542      0.167110
  O      -1.803204     -0.955046      0.348276
  H      -2.522339     -0.799596     -0.280373
  C       1.803342     -0.167719     -0.025171
  O       2.914013     -0.088656     -0.109517
9
Coordinates from ORCA-job Cobalt_acetate_plus1_singlet_triplet_triplet_min E -1611.487646682522
  C      -0.810507      1.593119      0.093872
  H      -0.960833      1.833091      1.142653
  H       0.041167      2.080023     -0.375368
  H      -1.716388      1.647859     -0.493592
  Co     -0.227349     -0.316446      0.187643
  O      -1.800459     -0.979120      0.311714
  H      -2.557208     -0.792211     -0.262392
  C       1.779330     -0.150770     -0.014018
  O       2.887156     -0.054981     -0.106966
9
Coordinates from ORCA-job Cobalt_acetate_plus1_singlet_triplet_triplet_min E -1611.487679947162
  C      -0.805672      1.597734      0.095029
  H      -0.956398      1.838241      1.145135
  H       0.048667      2.080527     -0.373822
  H      -1.713006      1.649916     -0.496218
  Co     -0.230709     -0.310908      0.193650
  O      -1.800052     -0.984243      0.307968
  H      -2.560840     -0.807887     -0.263946
  C       1.772657     -0.148613     -0.015050
  O       2.880262     -0.054205     -0.109199
9
Coordinates from ORCA-job Cobalt_acetate_plus1_singlet_triplet_triplet_min E -1611.487695880472
  C      -0.804890      1.599681      0.095839
  H      -0.956528      1.843538      1.145699
  H       0.051251      2.081551     -0.372422
  H      -1.712430      1.650166     -0.496620
  Co     -0.231685     -0.309479      0.196846
  O      -1.798941     -0.987197      0.306281
  H      -2.560175     -0.813035     -0.265513
  C       1.770745     -0.149151     -0.014835
  O       2.877562     -0.055511     -0.111728
9
Coordinates from ORCA-job Cobalt_acetate_plus1_singlet_triplet_triplet_min E -1611.487720464389
  C      -0.805183      1.604564      0.098304
  H      -0.957785      1.857176      1.146448
  H       0.053417      2.083508     -0.370095
  H      -1.712721      1.650421     -0.495316
  Co     -0.233184     -0.306673      0.204188
  O      -1.796950     -0.992025      0.304430
  H      -2.555336     -0.823368     -0.272564
  C       1.768580     -0.152089     -0.012734
  O       2.874071     -0.060951     -0.119117
9
Coordinates from ORCA-job Cobalt_acetate_plus1_singlet_triplet_triplet_min E -1611.487733520780
  C      -0.805977      1.607867      0.100241
  H      -0.959274      1.866353      1.146591
  H       0.053345      2.084477     -0.368963
  H      -1.712919      1.650456     -0.493680
  Co     -0.233943     -0.305058      0.209694
  O      -1.795854     -0.994271      0.303958
  H      -2.550696     -0.829431     -0.278792
  C       1.767753     -0.154669     -0.009930
  O       2.872474     -0.065161     -0.125572
9
Coordinates from ORCA-job Cobalt_acetate_plus1_singlet_triplet_triplet_min E -1611.487740952607
  C      -0.806463      1.609303      0.101502
  H      -0.961409      1.870758      1.146380
  H       0.052848      2.084606     -0.368077
  H      -1.712208      1.650000     -0.493287
  Co     -0.234100     -0.304693      0.214050
  O      -1.795337     -0.994811      0.303880
  H      -2.547591     -0.831210     -0.282700
  C       1.767544     -0.156312     -0.007043
  O       2.871625     -0.067077     -0.131158
9
Coordinates from ORCA-job Cobalt_acetate_plus1_singlet_triplet_triplet_min E -1611.487744100051
  C      -0.806885      1.610857      0.102431
  H      -0.963772      1.872540      1.146618
  H       0.052817      2.084758     -0.367130
  H      -1.711268      1.650557     -0.493843
  Co     -0.234378     -0.303794      0.216742
  O      -1.795345     -0.993842      0.305467
  H      -2.544648     -0.834068     -0.286069
  C       1.767372     -0.157635     -0.005185
  O       2.871016     -0.068811     -0.135486
9
Coordinates from ORCA-job Cobalt_acetate_plus1_singlet_triplet_triplet_min E -1611.487746101576
  C      -0.806927      1.611264      0.102868
  H      -0.967422      1.871600      1.146652
  H       0.053644      2.084820     -0.365101
  H      -1.709265      1.650782     -0.496340
  Co     -0.234341     -0.303663      0.219528
  O      -1.795615     -0.992078      0.307362
  H      -2.542714     -0.834753     -0.287750
  C       1.767295     -0.158417     -0.003724
  O       2.870253     -0.068993     -0.139947
9
Coordinates from ORCA-job Cobalt_acetate_plus1_singlet_triplet_triplet_min E -1611.487746784727
  C      -0.806678      1.611291      0.102957
  H      -0.972920      1.868658      1.146602
  H       0.055879      2.085251     -0.361084
  H      -1.705884      1.651270     -0.501231
  Co     -0.234281     -0.303580      0.222784
  O      -1.796279     -0.989217      0.310576
  H      -2.540844     -0.835626     -0.288814
  C       1.766970     -0.159057     -0.002891
  O       2.868947     -0.068427     -0.145352
9
Coordinates from ORCA-job Cobalt_acetate_plus1_singlet_triplet_triplet_min E -1611.487746341205
  C      -0.806349      1.611020      0.102658
  H      -0.978178      1.865637      1.146301
  H       0.058656      2.086147     -0.356136
  H      -1.702516      1.651883     -0.506560
  Co     -0.234258     -0.303502      0.225150
  O      -1.797042     -0.986710      0.313967
  H      -2.539563     -0.836754     -0.288973
  C       1.766484     -0.159467     -0.003337
  O       2.867675     -0.067689     -0.149524
9
Coordinates from ORCA-job Cobalt_acetate_plus1_singlet_triplet_triplet_min E -1611.487745178468
  C      -0.805988      1.610601      0.102094
  H      -0.985416      1.862481      1.145494
  H       0.062666      2.087847     -0.348297
  H      -1.697905      1.652840     -0.513970
  Co     -0.234293     -0.303315      0.227675
  O      -1.798031     -0.984033      0.318732
  H      -2.537922     -0.838751     -0.288711
  C       1.765694     -0.160061     -0.005041
  O       2.866104     -0.067045     -0.154430
9
Coordinates from ORCA-job Cobalt_acetate_plus1_singlet_triplet_triplet_min E -1611.487743311048
  C      -0.805665      1.610142      0.101435
  H      -0.996628      1.859444      1.143824
  H       0.068345      2.090554     -0.335833
  H      -1.690931      1.654261     -0.524747
  Co     -0.234381     -0.302954      0.230778
  O      -1.799204     -0.981152      0.325637
  H      -2.535334     -0.841795     -0.287957
  C       1.764546     -0.161106     -0.008309
  O       2.864161     -0.066833     -0.161282
9
Coordinates from ORCA-job Cobalt_acetate_plus1_singlet_triplet_triplet_min E -1611.487740067770
  C      -0.805240      1.609488      0.100628
  H      -1.020747      1.854857      1.139699
  H       0.079027      2.095723     -0.309773
  H      -1.675920      1.656934     -0.546393
  Co     -0.234490     -0.302203      0.236321
  O      -1.800974     -0.976522      0.339065
  H      -2.530030     -0.847136     -0.285511
  C       1.762459     -0.163332     -0.015392
  O       2.860824     -0.067245     -0.175098
9
Coordinates from ORCA-job Cobalt_acetate_plus1_singlet_triplet_triplet_min E -1611.487732996145
  C      -0.804025      1.607883      0.099196
  H      -1.089296      1.842760      1.124822
  H       0.104445      2.108692     -0.236174
  H      -1.630452      1.663895     -0.604802
  Co     -0.234388     -0.300281      0.250020
  O      -1.804627     -0.964797      0.374181
  H      -2.516238     -0.859315     -0.275627
  C       1.757166     -0.169234     -0.035282
  O       2.852325     -0.069040     -0.212789
9
Coordinates from ORCA-job Cobalt_acetate_plus1_singlet_triplet_triplet_min E -1611.487736495084
  C      -0.801624      1.604690      0.097788
  H      -1.180857      1.826368      1.096405
  H       0.129657      2.123400     -0.134806
  H      -1.561456      1.672119     -0.678586
  Co     -0.233459     -0.298539      0.265591
  O      -1.807487     -0.951618      0.417053
  H      -2.501427     -0.869638     -0.256096
  C       1.750128     -0.175740     -0.063051
  O       2.841434     -0.070479     -0.260753
9
Coordinates from ORCA-job Cobalt_acetate_plus1_singlet_triplet_triplet_min E -1611.487818496326
  C      -0.798132      1.599281      0.097614
  H      -1.263384      1.813521      1.060531
  H       0.144397      2.131671     -0.039834
  H      -1.488856      1.675943     -0.740515
  Co     -0.231804     -0.298641      0.275886
  O      -1.806560     -0.948006      0.449683
  H      -2.496276     -0.866924     -0.228614
  C       1.743050     -0.177995     -0.091478
  O       2.832473     -0.068287     -0.299727
9
Coordinates from ORCA-job Cobalt_acetate_plus1_singlet_triplet_triplet_min E -1611.488097997186
  C      -0.793264      1.590738      0.102856
  H      -1.351806      1.815076      1.007723
  H       0.152956      2.127766      0.063828
  H      -1.395586      1.670095     -0.797610
  Co     -0.230021     -0.300402      0.277251
  O      -1.796625     -0.971347      0.467676
  H      -2.509597     -0.840620     -0.177535
  C       1.732927     -0.170568     -0.130662
  O       2.825926     -0.060174     -0.329981
9
Coordinates from ORCA-job Cobalt_acetate_plus1_singlet_triplet_triplet_min E -1611.488438109649
  C      -0.793390      1.590852      0.110911
  H      -1.446917      1.811742      0.947547
  H       0.152455      2.124299      0.171007
  H      -1.292772      1.672767     -0.849834
  Co     -0.228876     -0.296572      0.284243
  O      -1.788505     -0.979399      0.494654
  H      -2.509646     -0.832397     -0.137377
  C       1.725367     -0.168998     -0.161959
  O       2.817193     -0.061729     -0.375645
9
Coordinates from ORCA-job Cobalt_acetate_plus1_singlet_triplet_triplet_min E -1611.488923591187
  C      -0.799816      1.599833      0.128271
  H      -1.543912      1.809363      0.883775
  H       0.152567      2.107427      0.259182
  H      -1.181762      1.664287     -0.886368
  Co     -0.227890     -0.287640      0.287304
  O      -1.772246     -0.995148      0.497486
  H      -2.526765     -0.814911     -0.082153
  C       1.724228     -0.158847     -0.178935
  O       2.810503     -0.063802     -0.425017
9
Coordinates from ORCA-job Cobalt_acetate_plus1_singlet_triplet_triplet_min E -1611.489254749249
  C      -0.798464      1.590884      0.126048
  H      -1.617174      1.779324      0.807686
  H       0.128391      2.108636      0.367459
  H      -1.076368      1.673725     -0.923248
  Co     -0.222955     -0.290069      0.296352
  O      -1.769536     -0.983885      0.530381
  H      -2.527457     -0.798481     -0.043649
  C       1.719210     -0.160436     -0.205810
  O       2.799263     -0.059134     -0.471673
9
Coordinates from ORCA-job Cobalt_acetate_plus1_singlet_triplet_triplet_min E -1611.489529383598
  C      -0.793881      1.580299      0.117907
  H      -1.680377      1.722306      0.728783
  H       0.091567      2.114492      0.475161
  H      -0.967099      1.678889     -0.958110
  Co     -0.213432     -0.292609      0.299208
  O      -1.764521     -0.961346      0.548397
  H      -2.549385     -0.770941      0.014148
  C       1.722173     -0.158321     -0.223379
  O       2.789865     -0.052206     -0.518568
9
Coordinates from ORCA-job Cobalt_acetate_plus1_singlet_triplet_triplet_min E -1611.489616738525
  C      -0.794404      1.585975      0.122886
  H      -1.737432      1.741974      0.631562
  H       0.054828      2.102486      0.576102
  H      -0.843812      1.686647     -0.963381
  Co     -0.216038     -0.282682      0.313711
  O      -1.755635     -0.978012      0.573102
  H      -2.548595     -0.787653      0.051518
  C       1.705570     -0.153783     -0.253424
  O       2.770426     -0.054388     -0.568529
9
Coordinates from ORCA-job Cobalt_acetate_plus1_singlet_triplet_triplet_min E -1611.489677217456
  C      -0.797051      1.591009      0.119704
  H      -1.714518      1.747067      0.674313
  H       0.071867      2.106072      0.535322
  H      -0.898176      1.689250     -0.962157
  Co     -0.217209     -0.281623      0.296947
  O      -1.755115     -0.979311      0.557420
  H      -2.555399     -0.795044      0.045281
  C       1.715816     -0.154440     -0.240323
  O       2.784695     -0.062417     -0.542962
9
Coordinates from ORCA-job Cobalt_acetate_plus1_singlet_triplet_triplet_min E -1611.489728284389
  C      -0.798499      1.591802      0.114843
  H      -1.724753      1.736298      0.659413
  H       0.057381      2.107803      0.556167
  H      -0.883033      1.700179     -0.967442
  Co     -0.214343     -0.281770      0.288827
  O      -1.751255     -0.976280      0.555872
  H      -2.565611     -0.792953      0.065841
  C       1.724389     -0.154949     -0.239274
  O       2.790633     -0.069566     -0.550701
9
Coordinates from ORCA-job Cobalt_acetate_plus1_singlet_triplet_triplet_min E -1611.489751114614
  C      -0.799813      1.595681      0.113522
  H      -1.735929      1.738146      0.640122
  H       0.045246      2.108324      0.576873
  H      -0.862236      1.710943     -0.968703
  Co     -0.213855     -0.278907      0.289010
  O      -1.747762     -0.978721      0.558791
  H      -2.568732     -0.801711      0.077212
  C       1.726960     -0.155546     -0.240660
  O       2.791029     -0.077648     -0.562620
9
Coordinates from ORCA-job Cobalt_acetate_plus1_singlet_triplet_triplet_min E -1611.489765008476
  C      -0.799804      1.598876      0.112836
  H      -1.750291      1.737956      0.612768
  H       0.030824      2.108912      0.603350
  H      -0.832052      1.724395     -0.969229
  Co     -0.213842     -0.275516      0.293363
  O      -1.744655     -0.980368      0.566939
  H      -2.568791     -0.812289      0.087129
  C       1.726099     -0.156565     -0.245287
  O       2.787422     -0.084838     -0.578323
9
Coordinates from ORCA-job Cobalt_acetate_plus1_singlet_triplet_triplet_min E -1611.489771412100
  C      -0.799118      1.601078      0.112984
  H      -1.754804      1.739171      0.602878
  H       0.027258      2.110384      0.611518
  H      -0.821479      1.731968     -0.968817
  Co     -0.214644     -0.273100      0.297619
  O      -1.743636     -0.981985      0.571260
  H      -2.567045     -0.820964      0.087605
  C       1.723987     -0.157219     -0.247405
  O       2.784388     -0.088769     -0.584096
9
Coordinates from ORCA-job Cobalt_acetate_plus1_singlet_triplet_triplet_min E -1611.489774592105
  C      -0.798579      1.602568      0.113080
  H      -1.754362      1.740420      0.603138
  H       0.029173      2.111706      0.610241
  H      -0.822220      1.736120     -0.968658
  Co     -0.215690     -0.271439      0.299404
  O      -1.743359     -0.983363      0.572680
  H      -2.565403     -0.826859      0.085207
  C       1.722218     -0.157469     -0.248262
  O       2.783130     -0.091120     -0.583284
9
Coordinates from ORCA-job Cobalt_acetate_plus1_singlet_triplet_triplet_min E -1611.489775348022
  C      -0.798620      1.602998      0.113010
  H      -1.752892      1.740791      0.606312
  H       0.031145      2.112210      0.607130
  H      -0.825946      1.736645     -0.968766
  Co     -0.216002     -0.270977      0.299336
  O      -1.743266     -0.983901      0.572021
  H      -2.564898     -0.827867      0.083762
  C       1.721940     -0.157323     -0.248124
  O       2.783448     -0.092013     -0.581135
9
Coordinates from ORCA-job Cobalt_acetate_plus1_singlet_triplet_triplet_min E -1611.489775535204
  C      -0.798978      1.603077      0.112840
  H      -1.752208      1.740469      0.608478
  H       0.031917      2.112304      0.605264
  H      -0.828557      1.736602     -0.968953
  Co     -0.215948     -0.270780      0.298715
  O      -1.742882     -0.984259      0.570995
  H      -2.564821     -0.827018      0.083752
  C       1.722181     -0.156930     -0.248085
  O       2.784206     -0.092902     -0.579458
9
Coordinates from ORCA-job Cobalt_acetate_plus1_singlet_triplet_triplet_min E -1611.489775482672
  C      -0.799718      1.604033      0.112653
  H      -1.752048      1.740581      0.610381
  H       0.031884      2.113016      0.604227
  H      -0.830913      1.737500     -0.969071
  Co     -0.215873     -0.269597      0.298640
  O      -1.742088     -0.984284      0.570962
  H      -2.563459     -0.828069      0.082498
  C       1.722328     -0.156813     -0.248174
  O       2.784797     -0.095803     -0.578570
