9
Coordinates from ORCA-job Cobalt_INT2_singlet_min
  C   -0.72983909368138      1.77695805902355     -0.02023788881965
  H   -0.41655899927553      1.94914410109842      1.00412236374065
  H   -0.12742738475166      2.35181788213857     -0.74649304921421
  H   -1.80536444923908      1.89901435377929     -0.17164657491858
  Co  -0.41011363363899      0.09120710969110     -0.77385316201654
  O   -1.47085116698621     -1.10873073322698     -0.26728605177320
  H   -1.57372464829593     -1.45085281678756      0.63509503333447
  C   1.12420356313627     -0.22080261710829      0.11025846078653
  O   2.04458481273251     -0.42719233860811      0.71358686888052
