9
Coordinates from ORCA-job Cobalt_INT2_triplet_min
  C   -0.80001243763929      1.60389331567672      0.11258839529171
  H   -1.75216708991370      1.74027579916312      0.61067207644537
  H   0.03161139152991      2.11309459547092      0.60381689274527
  H   -0.83172489837631      1.73747601658551     -0.96907508359971
  Co  -0.21565941003097     -0.26965075524176      0.29850303757932
  O   -1.74175851621352     -0.98454625209950      0.57090634785766
  H   -2.56316700849543     -0.82813846745744      0.08256516435929
  C   1.72262011241644     -0.15645262981063     -0.24812109329891
  O   2.78516685672287     -0.09538862228694     -0.57830973737999
