9
Coordinates from ORCA-job Cobalt_acetate_plus1_singlet_triplet_singlet_min E -1611.419527562666
  C      -0.783025      1.657495      0.079214
  H      -0.648736      1.817627      1.152179
  H      -0.040391      2.171210     -0.542367
  H      -1.805645      1.834050     -0.245668
  Co     -0.305103     -0.204959     -0.166912
  O      -1.796162     -0.862140      0.341588
  H      -2.431810     -1.253807     -0.281982
  C       1.667224     -0.154131     -0.018260
  O       2.778557     -0.144782      0.165754
9
Coordinates from ORCA-job Cobalt_acetate_plus1_singlet_triplet_singlet_min E -1611.423576604303
  C      -0.770578      1.645483      0.080675
  H      -0.624538      1.824486      1.145408
  H      -0.047966      2.157507     -0.556053
  H      -1.802178      1.784038     -0.231619
  Co     -0.294107     -0.220900     -0.135869
  O      -1.802014     -0.882400      0.321431
  H      -2.481419     -1.197982     -0.294142
  C       1.676707     -0.135743     -0.009700
  O       2.781001     -0.113927      0.163415
9
Coordinates from ORCA-job Cobalt_acetate_plus1_singlet_triplet_singlet_min E -1611.429201733841
  C      -0.731296      1.625949      0.081141
  H      -0.606197      1.819884      1.143753
  H      -0.012592      2.143895     -0.542409
  H      -1.761014      1.711540     -0.251817
  Co     -0.292593     -0.257499     -0.076068
  O      -1.827393     -0.919013      0.286935
  H      -2.571694     -1.139423     -0.290560
  C       1.670004     -0.092710     -0.007656
  O       2.767685     -0.032059      0.140228
9
Coordinates from ORCA-job Cobalt_acetate_plus1_singlet_triplet_singlet_min E -1611.432007181429
  C      -0.669739      1.598772      0.080763
  H      -0.555098      1.803156      1.142659
  H       0.042346      2.131525     -0.536981
  H      -1.699422      1.639276     -0.261642
  Co     -0.306192     -0.307414     -0.035515
  O      -1.865948     -0.949100      0.236358
  H      -2.672997     -1.108737     -0.271293
  C       1.632795     -0.033481     -0.000894
  O       2.729164      0.086566      0.130091
9
Coordinates from ORCA-job Cobalt_acetate_plus1_singlet_triplet_singlet_min E -1611.432983415241
  C      -0.669963      1.584206      0.079843
  H      -0.529406      1.802920      1.132298
  H       0.014926      2.119596     -0.565255
  H      -1.710906      1.610209     -0.229683
  Co     -0.293265     -0.319303     -0.046407
  O      -1.850685     -0.971835      0.204115
  H      -2.694224     -1.040158     -0.256777
  C       1.637988     -0.026699      0.015757
  O       2.730445      0.101627      0.149655
9
Coordinates from ORCA-job Cobalt_acetate_plus1_singlet_triplet_singlet_min E -1611.434613956324
  C      -0.657805      1.572441      0.079963
  H      -0.508929      1.803914      1.129544
  H       0.013503      2.115785     -0.579730
  H      -1.702940      1.605265     -0.216038
  Co     -0.291284     -0.334067     -0.077899
  O      -1.836758     -1.000280      0.165267
  H      -2.722451     -1.011030     -0.217796
  C       1.623398     -0.021489      0.032179
  O       2.718175      0.130025      0.168056
9
Coordinates from ORCA-job Cobalt_acetate_plus1_singlet_triplet_singlet_min E -1611.436227572965
  C      -0.657404      1.566617      0.079885
  H      -0.504963      1.807726      1.128845
  H       0.008409      2.113092     -0.587845
  H      -1.703692      1.624845     -0.210011
  Co     -0.287360     -0.337910     -0.126602
  O      -1.809228     -1.027446      0.131321
  H      -2.728660     -0.992687     -0.168229
  C       1.610312     -0.029311      0.048740
  O       2.707495      0.135636      0.187441
9
Coordinates from ORCA-job Cobalt_acetate_plus1_singlet_triplet_singlet_min E -1611.437588799304
  C      -0.665472      1.561417      0.077881
  H      -0.501802      1.806319      1.124882
  H      -0.005643      2.106257     -0.598505
  H      -1.713849      1.638870     -0.199622
  Co     -0.278667     -0.335348     -0.174951
  O      -1.779867     -1.046022      0.092575
  H      -2.723201     -0.963771     -0.114485
  C       1.603900     -0.038316      0.063773
  O       2.699510      0.131158      0.211998
9
Coordinates from ORCA-job Cobalt_acetate_plus1_singlet_triplet_singlet_min E -1611.438512373504
  C      -0.668799      1.551495      0.074953
  H      -0.490284      1.797062      1.119367
  H      -0.016893      2.097347     -0.611873
  H      -1.720565      1.639865     -0.185725
  Co     -0.271097     -0.339839     -0.215901
  O      -1.757323     -1.062963      0.054832
  H      -2.729362     -0.924774     -0.068578
  C       1.596876     -0.037891      0.085814
  O       2.692355      0.140262      0.230657
9
Coordinates from ORCA-job Cobalt_acetate_plus1_singlet_triplet_singlet_min E -1611.440167833752
  C      -0.683024      1.551631      0.066276
  H      -0.484265      1.775632      1.113502
  H      -0.020303      2.090982     -0.619765
  H      -1.731932      1.681108     -0.180908
  Co     -0.270874     -0.325465     -0.296215
  O      -1.724277     -1.060618      0.018348
  H      -2.690577     -0.930378      0.009984
  C       1.572445     -0.046117      0.105139
  O       2.667717      0.123788      0.267185
9
Coordinates from ORCA-job Cobalt_acetate_plus1_singlet_triplet_singlet_min E -1611.442286789134
  C      -0.713578      1.552581      0.056015
  H      -0.472105      1.753054      1.098343
  H      -0.057214      2.083617     -0.644213
  H      -1.767482      1.695903     -0.155695
  Co     -0.258431     -0.297637     -0.364201
  O      -1.687442     -1.052242     -0.022911
  H      -2.633024     -0.897885      0.079930
  C       1.568226     -0.054606      0.112755
  O       2.655961      0.077778      0.323521
9
Coordinates from ORCA-job Cobalt_acetate_plus1_singlet_triplet_singlet_min E -1611.444738789281
  C      -0.748913      1.557141      0.045520
  H      -0.480006      1.730408      1.082849
  H      -0.094371      2.082467     -0.656340
  H      -1.804880      1.703234     -0.146765
  Co     -0.242215     -0.258869     -0.422913
  O      -1.651614     -1.041682     -0.065514
  H      -2.565063     -0.861418      0.158849
  C       1.572500     -0.065378      0.112567
  O       2.649471      0.014661      0.375293
9
Coordinates from ORCA-job Cobalt_acetate_plus1_singlet_triplet_singlet_min E -1611.447459426449
  C      -0.783971      1.569439      0.034979
  H      -0.497444      1.715956      1.068859
  H      -0.133184      2.099373     -0.663216
  H      -1.844227      1.703054     -0.152515
  Co     -0.224926     -0.205706     -0.473488
  O      -1.618742     -1.032031     -0.110465
  H      -2.486573     -0.838444      0.245998
  C       1.580471     -0.081763      0.109592
  O       2.643504     -0.069314      0.423802
9
Coordinates from ORCA-job Cobalt_acetate_plus1_singlet_triplet_singlet_min E -1611.450393661490
  C      -0.801572      1.584642      0.024276
  H      -0.503707      1.707316      1.057333
  H      -0.155679      2.129621     -0.668120
  H      -1.863759      1.711267     -0.163935
  Co     -0.219666     -0.154841     -0.532701
  O      -1.594371     -1.022363     -0.153501
  H      -2.403494     -0.858915      0.339433
  C       1.564170     -0.097383      0.110144
  O       2.612986     -0.138780      0.470618
9
Coordinates from ORCA-job Cobalt_acetate_plus1_singlet_triplet_singlet_min E -1611.453008085261
  C      -0.791539      1.628752      0.013150
  H      -0.503837      1.747018      1.053037
  H      -0.180202      2.238247     -0.666933
  H      -1.858980      1.703180     -0.206725
  Co     -0.229427     -0.077858     -0.580087
  O      -1.572196     -1.057259     -0.187210
  H      -2.324864     -0.952551      0.441077
  C       1.531103     -0.129091      0.098619
  O       2.564851     -0.239873      0.518619
9
Coordinates from ORCA-job Cobalt_acetate_plus1_singlet_triplet_singlet_min E -1611.456551002562
  C      -0.798907      1.636708      0.004300
  H      -0.500270      1.743786      1.042896
  H      -0.179500      2.242880     -0.676355
  H      -1.862871      1.747352     -0.196507
  Co     -0.241191     -0.048512     -0.653065
  O      -1.542234     -1.040770     -0.214734
  H      -2.202344     -0.998994      0.509627
  C       1.473068     -0.143982      0.108107
  O       2.489158     -0.277905      0.559277
9
Coordinates from ORCA-job Cobalt_acetate_plus1_singlet_triplet_singlet_min E -1611.459973903676
  C      -0.794034      1.654779     -0.003086
  H      -0.497216      1.777983      1.036329
  H      -0.174444      2.260234     -0.689637
  H      -1.853273      1.802671     -0.176352
  Co     -0.271964     -0.018546     -0.733808
  O      -1.483520     -1.056425     -0.234453
  H      -2.029655     -1.062897      0.568987
  C       1.376592     -0.169589      0.109117
  O       2.362423     -0.327649      0.606450
9
Coordinates from ORCA-job Cobalt_acetate_plus1_singlet_triplet_singlet_min E -1611.462620041889
  C      -0.782940      1.696613     -0.012574
  H      -0.483295      1.834047      1.024290
  H      -0.177498      2.313696     -0.702201
  H      -1.847124      1.840051     -0.180692
  Co     -0.308473      0.034962     -0.780472
  O      -1.441162     -1.082611     -0.253583
  H      -1.845223     -1.167441      0.628407
  C       1.282817     -0.200604      0.107764
  O       2.237807     -0.408150      0.652607
9
Coordinates from ORCA-job Cobalt_acetate_plus1_singlet_triplet_singlet_min E -1611.463535938589
  C      -0.720016      1.736881     -0.015837
  H      -0.418033      1.917437      1.012507
  H      -0.147163      2.368675     -0.714893
  H      -1.794113      1.853081     -0.155440
  Co     -0.393777      0.048851     -0.804943
  O      -1.409977     -1.167106     -0.271248
  H      -1.703006     -1.301796      0.641230
  C       1.149648     -0.197014      0.091148
  O       2.071346     -0.398447      0.701023
9
Coordinates from ORCA-job Cobalt_acetate_plus1_singlet_triplet_singlet_min E -1611.464389474275
  C      -0.751441      1.767205     -0.024552
  H      -0.441594      1.923672      1.004959
  H      -0.161602      2.382655     -0.727031
  H      -1.826691      1.880340     -0.184573
  Co     -0.382456      0.099506     -0.800215
  O      -1.414083     -1.126633     -0.268713
  H      -1.580979     -1.337442      0.668408
  C       1.143791     -0.229139      0.105078
  O       2.049965     -0.499600      0.710184
9
Coordinates from ORCA-job Cobalt_acetate_plus1_singlet_triplet_singlet_min E -1611.464595694451
  C      -0.748069      1.764418     -0.024804
  H      -0.436239      1.913765      1.005333
  H      -0.151941      2.369995     -0.730089
  H      -1.822215      1.879704     -0.181853
  Co     -0.382266      0.090862     -0.792639
  O      -1.438788     -1.111907     -0.266309
  H      -1.604644     -1.358116      0.658850
  C       1.152159     -0.216759      0.108291
  O       2.066913     -0.471399      0.706766
9
Coordinates from ORCA-job Cobalt_acetate_plus1_singlet_triplet_singlet_min E -1611.464525509131
  C      -0.721420      1.784967     -0.027631
  H      -0.374150      1.962647      0.988582
  H      -0.153441      2.377159     -0.770500
  H      -1.802307      1.889599     -0.139711
  Co     -0.415794      0.094008     -0.788315
  O      -1.462413     -1.111704     -0.268692
  H      -1.534717     -1.471533      0.622926
  C       1.094030     -0.212686      0.127000
  O       2.005122     -0.451894      0.739887
9
Coordinates from ORCA-job Cobalt_acetate_plus1_singlet_triplet_singlet_min E -1611.464574038559
  C      -0.736649      1.775668     -0.024639
  H      -0.471255      1.918940      1.013803
  H      -0.091686      2.341877     -0.711405
  H      -1.800566      1.913471     -0.210898
  Co     -0.408117      0.078631     -0.765942
  O      -1.477687     -1.100047     -0.249345
  H      -1.581865     -1.437146      0.651888
  C       1.136734     -0.205132      0.100429
  O       2.066002     -0.425699      0.679654
9
Coordinates from ORCA-job Cobalt_acetate_plus1_singlet_triplet_singlet_min E -1611.464755146290
  C      -0.738237      1.775899     -0.024310
  H      -0.434504      1.933573      1.006105
  H      -0.133173      2.365156     -0.737140
  H      -1.814477      1.891512     -0.183045
  Co     -0.395615      0.089279     -0.775971
  O      -1.461977     -1.106365     -0.264407
  H      -1.584367     -1.417752      0.647254
  C       1.137450     -0.217522      0.112322
  O       2.059810     -0.453217      0.702737
9
Coordinates from ORCA-job Cobalt_acetate_plus1_singlet_triplet_singlet_min E -1611.464765036625
  C      -0.733034      1.779395     -0.024538
  H      -0.434197      1.938875      1.006122
  H      -0.123022      2.364016     -0.734436
  H      -1.806415      1.900433     -0.186872
  Co     -0.406766      0.089447     -0.776160
  O      -1.464463     -1.109210     -0.260052
  H      -1.568120     -1.440583      0.646145
  C       1.123901     -0.216238      0.110281
  O       2.047025     -0.445572      0.703056
9
Coordinates from ORCA-job Cobalt_acetate_plus1_singlet_triplet_singlet_min E -1611.464774545336
  C      -0.732471      1.779870     -0.023734
  H      -0.432533      1.942300      1.006423
  H      -0.123332      2.362606     -0.737163
  H      -1.806777      1.900068     -0.184889
  Co     -0.406830      0.089124     -0.773828
  O      -1.466073     -1.108877     -0.261271
  H      -1.569325     -1.443342      0.643542
  C       1.124197     -0.217930      0.111219
  O       2.048053     -0.443257      0.703249
9
Coordinates from ORCA-job Cobalt_acetate_plus1_singlet_triplet_singlet_min E -1611.464790324575
  C      -0.731577      1.780284     -0.021722
  H      -0.430550      1.947048      1.007219
  H      -0.122916      2.359187     -0.739720
  H      -1.806355      1.900318     -0.184246
  Co     -0.408134      0.090002     -0.770415
  O      -1.469110     -1.108132     -0.262717
  H      -1.571685     -1.448944      0.640454
  C       1.125040     -0.221961      0.111110
  O       2.050196     -0.437239      0.703583
9
Coordinates from ORCA-job Cobalt_acetate_plus1_singlet_triplet_singlet_min E -1611.464796131419
  C      -0.730506      1.779671     -0.020580
  H      -0.424930      1.949532      1.006468
  H      -0.125017      2.356954     -0.742740
  H      -1.805709      1.899118     -0.180427
  Co     -0.409415      0.090910     -0.770626
  O      -1.470475     -1.107838     -0.264462
  H      -1.572516     -1.451491      0.637804
  C       1.124657     -0.223507      0.111007
  O       2.048819     -0.432787      0.707102
9
Coordinates from ORCA-job Cobalt_acetate_plus1_singlet_triplet_singlet_min E -1611.464799749426
  C      -0.730089      1.778406     -0.020172
  H      -0.420747      1.949301      1.005513
  H      -0.126766      2.355020     -0.744337
  H      -1.805401      1.897972     -0.176888
  Co     -0.409865      0.091261     -0.772137
  O      -1.470939     -1.107612     -0.265716
  H      -1.573630     -1.450747      0.636544
  C       1.124931     -0.223119      0.110477
  O       2.047415     -0.429920      0.710263
9
Coordinates from ORCA-job Cobalt_acetate_plus1_singlet_triplet_singlet_min E -1611.464801721031
  C      -0.729991      1.777601     -0.020187
  H      -0.418652      1.948809      1.004858
  H      -0.127454      2.353806     -0.745139
  H      -1.805360      1.897758     -0.174571
  Co     -0.409974      0.091300     -0.773256
  O      -1.470940     -1.107724     -0.266368
  H      -1.573875     -1.449957      0.636030
  C       1.124938     -0.222270      0.110144
  O       2.046219     -0.428759      0.712036
9
Coordinates from ORCA-job Cobalt_acetate_plus1_singlet_triplet_singlet_min E -1611.464803220760
  C      -0.729929      1.777129     -0.020261
  H      -0.417503      1.948604      1.004453
  H      -0.127471      2.352805     -0.745696
  H      -1.805359      1.898204     -0.172977
  Co     -0.410045      0.091240     -0.773843
  O      -1.470886     -1.108109     -0.266779
  H      -1.573890     -1.449876      0.635699
  C       1.124702     -0.221442      0.109979
  O       2.045291     -0.427992      0.712972
9
Coordinates from ORCA-job Cobalt_acetate_plus1_singlet_triplet_singlet_min E -1611.464804339231
  C      -0.729822      1.776973     -0.020237
  H      -0.416682      1.948946      1.004218
  H      -0.127248      2.351911     -0.746321
  H      -1.805331      1.899034     -0.171828
  Co     -0.410172      0.091226     -0.773906
  O      -1.470858     -1.108669     -0.267132
  H      -1.573748     -1.450627      0.635290
  C       1.124213     -0.220883      0.110047
  O       2.044558     -0.427349      0.713414
