21
lambda = 0.33333333
Fe     0.604982965291     0.008977285663    -0.291848885349
S      1.114196470384    -1.960924039417     0.338226200026
S      1.545574457107     1.036429882180     1.328553657522
S     -1.491667569676     0.053102474707    -0.561853563247
S      1.206692151726     0.885443842947    -2.118950022109
C     -2.070317705875     1.572203314858    -1.381368257401
H     -1.610380779340     1.675371558964    -2.371272862238
H     -3.158992150419     1.497439073481    -1.481319106559
H     -1.822242537679     2.451067456965    -0.776639948494
C      0.777934792099    -3.042019446300    -1.075038052222
H      1.154433367186    -4.035541779061    -0.812719125239
H     -0.294944236798    -3.097543432076    -1.249522871232
H      1.268608588953    -2.678631107674    -1.980794766965
C      0.485821399609     2.484778483261     1.649155142137
H     -0.527836154585     2.168211989459     1.924627590830
H      0.937323813474     3.038768087986     2.483379107520
H      0.444239680148     3.137786533677     0.767425029922
C      2.927830325987     1.406665133326    -1.953537574204
H      3.554378662399     0.553683166650    -1.741759132477
H      3.235435809303     1.855580859736    -2.906909791210
H      3.021293690706     2.126765900668    -1.151982679011
