21
lambda = 0.11111111
Fe     0.567195065707     0.021997823653    -0.301572057887
S      1.156030015696    -1.906862730475     0.329911182802
S      1.430285571736     1.065205080240     1.332577843870
S     -1.518332374061     0.146837219472    -0.497576764832
S      1.186547967709     0.811220445793    -2.142003641189
C     -2.088865927493     1.684365764913    -1.290257629834
H     -1.649857831313     1.788131507502    -2.290099362404
H     -3.182921043154     1.636592757832    -1.363284091519
H     -1.805919373554     2.551446445960    -0.679951517341
C      0.924851754441    -2.992647114108    -1.112268151603
H      1.346091726756    -3.971440949053    -0.850938602554
H     -0.142566947113    -3.105981126892    -1.320889984042
H      1.426464170517    -2.591491062233    -1.998519967453
C      0.350769756961     2.502274615493     1.635264230798
H     -0.661713995912     2.174280133718     1.903609458531
H      0.790294635195     3.066108612780     2.470063174381
H      0.309464758919     3.151167388024     0.750325733984
C      2.952888339060     1.216340353773    -1.997276772982
H      3.531468216589     0.307257740000    -1.838667599154
H      3.265039782034     1.685003639737    -2.940298416278
H      3.115150771279     1.897808693866    -1.162296975293
