21
lambda = 0.66666667
Fe     0.661664714258    -0.010553559671    -0.277264169801
S      1.051446216239    -2.042016041606     0.350698656163
S      1.718507599634     0.993267011903     1.322517458118
S     -1.451670432868    -0.087499510635    -0.658268917474
S      1.236908394707     0.996779002044    -2.084369589606
C     -2.042495318640     1.403959918920    -1.518034191813
H     -1.551165134016     1.506231986418    -2.493033099205
H     -3.123098760783     1.288708950242    -1.658371642925
H     -1.846727143972     2.300499162856    -0.921672485035
C      0.557559450897    -3.116078076750    -1.019192956039
H      0.866946806942    -4.131692850655    -0.755390250380
H     -0.523510102465    -3.084887847923    -1.142471692461
H      1.031824552676    -2.809340878439    -1.954207273796
C      0.688398673096     2.458534257711     1.669991378986
H     -0.327019566843     2.159109797664     1.956154787545
H      1.157867429704     2.997757460078     2.503352740949
H      0.646401802289     3.117715044055     0.793073707002
C      2.890243362179     1.692152178325    -1.887928589241
H      3.588744382947     0.923321015459    -1.596396527320
H      3.191029895106     2.111446872577    -2.856826535964
H      2.880508218916     2.470201347425    -1.136510717704
