9
Coordinates from ORCA-job Nickel_acetate_plus1_doublet_quartet E -1736.868833668182
  C      -0.781032      2.196890     -0.017492
  H      -0.300732      2.524310      0.900688
  H      -0.269578      2.413702     -0.949685
  H      -1.863066      2.206784     -0.033235
  O      -1.707030     -0.859360      0.304249
  H      -1.917469     -1.505197      0.467067
  C       1.481508     -0.499158      0.163800
  O       2.496134     -0.885569      0.226244
  Ni     -0.351558      0.139102      0.089358
9
Coordinates from ORCA-job Nickel_acetate_plus1_doublet_quartet E -1736.988326369959
  C      -0.767730      2.215348     -0.019521
  H      -0.286950      2.538363      0.900208
  H      -0.252625      2.429609     -0.951551
  H      -1.850640      2.226912     -0.036902
  O      -1.713192     -0.844713      0.295416
  H      -1.978434     -1.633969      0.494925
  C       1.481347     -0.480165      0.160473
  O       2.509568     -0.872591      0.226106
  Ni     -0.354165      0.152711      0.081841
9
Coordinates from ORCA-job Nickel_acetate_plus1_doublet_quartet E -1736.998254467278
  C      -0.767486      2.229940     -0.020799
  H      -0.285998      2.560640      0.898002
  H      -0.249355      2.430249     -0.957819
  H      -1.851902      2.241384     -0.040382
  O      -1.714705     -0.845898      0.295692
  H      -1.991659     -1.681626      0.487134
  C       1.482785     -0.483227      0.163437
  O       2.520967     -0.882064      0.215919
  Ni     -0.355469      0.162106      0.109810
9
Coordinates from ORCA-job Nickel_acetate_plus1_doublet_quartet E -1737.004323235571
  C      -0.760071      2.244516     -0.022137
  H      -0.266957      2.538675      0.902536
  H      -0.248643      2.465930     -0.958317
  H      -1.845414      2.254527     -0.032135
  O      -1.718549     -0.856919      0.283474
  H      -2.003562     -1.725800      0.533189
  C       1.478265     -0.476544      0.158367
  O       2.520085     -0.871760      0.245941
  Ni     -0.367976      0.158879      0.040074
9
Coordinates from ORCA-job Nickel_acetate_plus1_doublet_quartet E -1737.004516493794
  C      -0.758550      2.256079     -0.023073
  H      -0.265143      2.554286      0.899576
  H      -0.246172      2.465396     -0.961065
  H      -1.843408      2.264220     -0.034031
  O      -1.720638     -0.865470      0.279046
  H      -2.007319     -1.752339      0.530308
  C       1.479615     -0.478979      0.160997
  O       2.520404     -0.874429      0.238543
  Ni     -0.371612      0.162739      0.060691
9
Coordinates from ORCA-job Nickel_acetate_plus1_doublet_quartet E -1737.003491807615
  C      -0.759731      2.269371     -0.024707
  H      -0.264721      2.589887      0.889654
  H      -0.247850      2.449010     -0.968596
  H      -1.844295      2.276702     -0.035206
  O      -1.721130     -0.873131      0.279092
  H      -2.004839     -1.779582      0.500288
  C       1.481558     -0.486625      0.169533
  O       2.521154     -0.885640      0.217254
  Ni     -0.372968      0.171511      0.123684
9
Coordinates from ORCA-job Nickel_acetate_plus1_doublet_quartet E -1737.002995406731
  C      -0.762298      2.278316     -0.026153
  H      -0.261832      2.607533      0.882497
  H      -0.254551      2.444198     -0.974562
  H      -1.846859      2.287753     -0.031706
  O      -1.719317     -0.877748      0.280781
  H      -1.992748     -1.792581      0.482513
  C       1.480514     -0.495127      0.175523
  O       2.518845     -0.897620      0.211436
  Ni     -0.374576      0.176780      0.150666
9
Coordinates from ORCA-job Nickel_acetate_plus1_doublet_quartet E -1737.001963113121
  C      -0.774851      2.313947     -0.032348
  H      -0.257819      2.654210      0.863789
  H      -0.278007      2.449160     -0.990706
  H      -1.859314      2.334496     -0.024314
  O      -1.708054     -0.896435      0.295103
  H      -1.925377     -1.832264      0.435456
  C       1.470864     -0.533800      0.192495
  O       2.503108     -0.952260      0.204733
  Ni     -0.383372      0.194451      0.206786
9
Coordinates from ORCA-job Nickel_acetate_plus1_doublet_quartet E -1737.001707983609
  C      -0.780481      2.331129     -0.035424
  H      -0.260092      2.663922      0.861176
  H      -0.284182      2.465306     -0.994113
  H      -1.864896      2.355460     -0.025258
  O      -1.701747     -0.906234      0.309335
  H      -1.887492     -1.847869      0.425623
  C       1.463248     -0.551540      0.195562
  O       2.492211     -0.979424      0.209577
  Ni     -0.389391      0.200754      0.204516
9
Coordinates from ORCA-job Nickel_acetate_plus1_doublet_quartet E -1737.001765001157
  C      -0.780623      2.338443     -0.036885
  H      -0.263822      2.660790      0.865015
  H      -0.279016      2.479558     -0.991876
  H      -1.865175      2.361352     -0.030952
  O      -1.699494     -0.911797      0.322957
  H      -1.869785     -1.855978      0.428300
  C       1.456485     -0.554804      0.192674
  O       2.483702     -0.988091      0.214144
  Ni     -0.395094      0.202031      0.187617
9
Coordinates from ORCA-job Nickel_acetate_plus1_doublet_quartet E -1737.002263544224
  C      -0.774225      2.346931     -0.038909
  H      -0.268562      2.643018      0.876893
  H      -0.258033      2.508095     -0.983076
  H      -1.859146      2.362126     -0.045108
  O      -1.696904     -0.922917      0.354230
  H      -1.844177     -1.871225      0.441708
  C       1.437987     -0.546321      0.182197
  O       2.461914     -0.988821      0.224885
  Ni     -0.411676      0.200617      0.138173
9
Coordinates from ORCA-job Nickel_acetate_plus1_doublet_quartet E -1737.003075847804
  C      -0.763005      2.342967     -0.038302
  H      -0.257769      2.620592      0.882839
  H      -0.245125      2.521256     -0.978525
  H      -1.848241      2.350890     -0.043805
  O      -1.699149     -0.928671      0.363517
  H      -1.841664     -1.877702      0.459550
  C       1.422757     -0.524124      0.174919
  O       2.445176     -0.968583      0.238520
  Ni     -0.425802      0.194879      0.092280
9
Coordinates from ORCA-job Nickel_acetate_plus1_doublet_quartet E -1737.003710246502
  C      -0.755226      2.334922     -0.036397
  H      -0.237861      2.615842      0.877370
  H      -0.251245      2.514578     -0.983747
  H      -1.840527      2.340816     -0.026787
  O      -1.705685     -0.930750      0.344512
  H      -1.853629     -1.878478      0.467552
  C       1.419161     -0.507294      0.177208
  O       2.441577     -0.948933      0.246478
  Ni     -0.429387      0.190800      0.084807
9
Coordinates from ORCA-job Nickel_acetate_plus1_doublet_quartet E -1737.003563572222
  C      -0.755226      2.333079     -0.035416
  H      -0.221401      2.640099      0.861563
  H      -0.270824      2.490151     -0.996563
  H      -1.840037      2.343997     -0.006809
  O      -1.710703     -0.933488      0.314287
  H      -1.864889     -1.881510      0.451413
  C       1.425913     -0.507526      0.189195
  O       2.449000     -0.946343      0.239590
  Ni     -0.424655      0.193046      0.133734
9
Coordinates from ORCA-job Nickel_acetate_plus1_doublet_quartet E -1737.003106693486
  C      -0.760191      2.340947     -0.036694
  H      -0.222848      2.661191      0.854059
  H      -0.278704      2.480353     -1.001916
  H      -1.844746      2.358554     -0.006071
  O      -1.708420     -0.937253      0.310565
  H      -1.851921     -1.888542      0.432509
  C       1.427585     -0.520651      0.196411
  O       2.450053     -0.961826      0.229740
  Ni     -0.423630      0.198731      0.172391
9
Coordinates from ORCA-job Nickel_acetate_plus1_doublet_quartet E -1737.002837206637
  C      -0.764419      2.352408     -0.038852
  H      -0.232595      2.669348      0.856053
  H      -0.274491      2.488346     -1.000397
  H      -1.849087      2.374245     -0.016844
  O      -1.704131     -0.943480      0.325572
  H      -1.824832     -1.897905      0.423979
  C       1.422119     -0.533784      0.196587
  O       2.442787     -0.981166      0.225311
  Ni     -0.428173      0.203492      0.179584
9
Coordinates from ORCA-job Nickel_acetate_plus1_doublet_quartet E -1737.002967240968
  C      -0.762502      2.355316     -0.039462
  H      -0.235741      2.664854      0.860538
  H      -0.265819      2.496100     -0.996905
  H      -1.847369      2.376395     -0.023683
  O      -1.703809     -0.947665      0.336603
  H      -1.814068     -1.903286      0.427220
  C       1.415483     -0.531589      0.193077
  O       2.435206     -0.982005      0.226308
  Ni     -0.434204      0.203384      0.167297
9
Coordinates from ORCA-job Nickel_acetate_plus1_doublet_quartet E -1737.003458624415
  C      -0.754580      2.355771     -0.039607
  H      -0.234346      2.653905      0.867364
  H      -0.248688      2.504323     -0.991107
  H      -1.839748      2.375197     -0.031846
  O      -1.706315     -0.956060      0.350469
  H      -1.801478     -1.913749      0.435828
  C       1.400957     -0.517540      0.186759
  O       2.419377     -0.971451      0.228651
  Ni     -0.448001      0.201108      0.144484
9
Coordinates from ORCA-job Nickel_acetate_plus1_doublet_quartet E -1737.003552984640
  C      -0.752898      2.354055     -0.039169
  H      -0.230239      2.655853      0.865466
  H      -0.249497      2.499145     -0.992470
  H      -1.838013      2.375287     -0.029000
  O      -1.708574     -0.957355      0.344427
  H      -1.803276     -1.915342      0.435543
  C       1.400110     -0.514025      0.188048
  O       2.418778     -0.966825      0.227464
  Ni     -0.449214      0.200711      0.150685
9
Coordinates from ORCA-job Nickel_acetate_plus1_doublet_quartet E -1737.003436091111
  C      -0.753650      2.352564     -0.038590
  H      -0.226557      2.667692      0.859814
  H      -0.254811      2.483521     -0.996213
  H      -1.838443      2.381311     -0.025213
  O      -1.711559     -0.958295      0.329109
  H      -1.806142     -1.916758      0.428613
  C       1.403113     -0.515555      0.193233
  O       2.422753     -0.965020      0.219482
  Ni     -0.447527      0.202043      0.180759
9
Coordinates from ORCA-job Nickel_acetate_plus1_doublet_quartet E -1737.003400913360
  C      -0.754186      2.354072     -0.038906
  H      -0.230505      2.665871      0.862461
  H      -0.251109      2.486878     -0.994106
  H      -1.839010      2.383302     -0.029806
  O      -1.710965     -0.958822      0.334642
  H      -1.801870     -1.917511      0.429734
  C       1.401944     -0.517160      0.191554
  O       2.421475     -0.967396      0.218934
  Ni     -0.448596      0.202270      0.176487
9
Coordinates from ORCA-job Nickel_acetate_plus1_doublet_quartet E -1737.003389386947
  C      -0.753831      2.356029     -0.039281
  H      -0.237733      2.662329      0.868061
  H      -0.240931      2.490081     -0.989166
  H      -1.838601      2.388374     -0.040277
  O      -1.711412     -0.961196      0.344227
  H      -1.792966     -1.920711      0.432410
  C       1.397911     -0.517481      0.187982
  O       2.417526     -0.968328      0.215583
  Ni     -0.452784      0.202407      0.171455
9
Coordinates from ORCA-job Nickel_acetate_plus1_doublet_quartet E -1737.003380779027
  C      -0.753276      2.356187     -0.039269
  H      -0.241566      2.660961      0.871085
  H      -0.234318      2.488299     -0.986175
  H      -1.837866      2.392619     -0.046730
  O      -1.712943     -0.962771      0.347265
  H      -1.788567     -1.922896      0.433837
  C       1.395596     -0.516690      0.186265
  O       2.415711     -0.966599      0.211694
  Ni     -0.455593      0.202394      0.173023
9
Coordinates from ORCA-job Nickel_acetate_plus1_doublet_quartet E -1737.003324368426
  C      -0.751759      2.354739     -0.038883
  H      -0.251642      2.655675      0.879353
  H      -0.216227      2.479554     -0.977654
  H      -1.835415      2.405072     -0.064122
  O      -1.718667     -0.965957      0.352785
  H      -1.779251     -1.927513      0.438704
  C       1.390295     -0.513499      0.181715
  O       2.412633     -0.958492      0.200078
  Ni     -0.462789      0.201925      0.179018
9
Coordinates from ORCA-job Nickel_acetate_plus1_doublet_quartet E -1737.003164293159
  C      -0.751777      2.353269     -0.038610
  H      -0.252490      2.652729      0.880639
  H      -0.214149      2.476348     -0.976464
  H      -1.835148      2.407519     -0.065875
  O      -1.720376     -0.965242      0.352186
  H      -1.779912     -1.926844      0.440364
  C       1.390476     -0.512633      0.181121
  O       2.413838     -0.955154      0.198736
  Ni     -0.463283      0.201513      0.178897
