9
Coordinates from ORCA-job Nickel_INT2
  C   -0.75284746261193      2.35182583453185     -0.03844124081253
  H   -0.24210662713609      2.64887055273630      0.87530141804719
  H   -0.22611438834906      2.47461013621911     -0.98254505754204
  H   -1.83636442479609      2.40737946828915     -0.05261870513050
  O   -1.72030756055959     -0.96258029704352      0.34663973565133
  H   -1.78407716755901     -1.92365505548151      0.43806804095079
  C   1.39291782799607     -0.51315136083724      0.18485429821609
  O   2.41717653198698     -0.95332506200641      0.20733097603919
  Ni  -0.46109872897227      0.20152978359226      0.17240453458149
