21
lambda = 0.33333333
Fe     0.530151898449     0.112645966691    -0.073653417887
S      1.351330593145    -1.880384096962     0.282276619844
S      1.481539813644     1.043721412692     1.647005311040
S     -1.644874575214     0.240018291790    -0.282065034402
S      1.064943787323     0.991597531669    -1.984413971613
C     -2.188240623944     1.339841214880    -1.571954515078
H     -1.709105299466     1.060424264410    -2.439129840254
H     -3.249061581128     1.312305153242    -1.704573715960
H     -1.952566322928     2.318819595480    -1.359698098948
C      0.832637951081    -2.814248792122    -1.201025990469
H      1.203461895555    -3.848072607456    -1.119638910268
H     -0.258604489216    -2.826537578262    -1.278107136600
H      1.240469950357    -2.348334549438    -2.104929621130
C      0.647514022336     2.610680839378     1.850076817716
H     -0.406967185892     2.459689888431     1.896276760758
H      0.985152190825     3.085235743386     2.782325091234
H      0.861714133231     3.248524988668     1.011186091422
C      2.855639760495     1.221955454075    -1.933896951927
H      3.347738181069     0.264319767533    -1.860679225994
H      3.183536791396     1.738148734681    -2.849643646275
H      3.125954148882     1.807264017229    -1.069886525208
