21
lambda = 0.55555556
Fe     0.555332237373     0.082997806856    -0.119087242186
S      1.283623908782    -1.960195721181     0.312056651883
S      1.492845469589     1.171006914429     1.549681520084
S     -1.656712364922     0.197828182297    -0.302458432997
S      1.167246320832     0.830575406258    -2.098891064280
C     -2.127540776541     1.449770991391    -1.465741101629
H     -1.549697352877     1.318737694267    -2.297575280417
H     -3.162574951167     1.408457649051    -1.717043772747
H     -1.973673265578     2.388785467694    -1.095281355245
C      0.833618981466    -2.894111353989    -1.190676625315
H      1.205961419111    -3.925881979925    -1.097085502033
H     -0.253019291247    -2.913650506149    -1.313419256447
H      1.274472603493    -2.421542777161    -2.074988695440
C      0.505467867729     2.629363135780     1.804881215279
H     -0.520040970409     2.363699115613     1.887966979962
H      0.823172543784     3.130807133243     2.729151591839
H      0.615686232212     3.292365518293     0.968600272791
C      2.927937768074     1.191616742229    -1.977345710016
H      3.481764587398     0.277180590148    -1.844006920047
H      3.265416911827     1.695615389095    -2.895856583080
H      3.113077161073     1.824189841757    -1.127030599957
