21
lambda = 0.66666667
Fe     0.567922406835     0.068173726939    -0.141804154336
S      1.249770566600    -2.000101533290     0.326946667902
S      1.498498297562     1.234649665298     1.501019624606
S     -1.662631259776     0.176733127551    -0.312655132295
S      1.218397587587     0.750064343552    -2.156129610613
C     -2.097190852839     1.504735879647    -1.412634394905
H     -1.469993379583     1.447894409196    -2.226798000499
H     -3.119331636186     1.456533896955    -1.723278801141
H     -1.984226736903     2.423768403801    -0.963072983393
C      0.834109496658    -2.934042634923    -1.185501942738
H      1.207211180889    -3.964786666159    -1.085808797916
H     -0.250226692263    -2.957206970093    -1.331075316370
H      1.291473930061    -2.458146891022    -2.060018232595
C      0.434444790425     2.638704283981     1.782283414061
H     -0.576577862667     2.315703729204     1.883812089564
H      0.742182720263     3.153592828171     2.702564842141
H      0.492672281703     3.314285783106     0.947307363476
C      2.964086771864     1.176447386306    -1.999070089060
H      3.548777790562     0.283611001455    -1.835670767073
H      3.306356972042     1.674348716302    -2.918963051483
H      3.106638667168     1.832652754021    -1.155602637331
