21
lambda = 0.88888889
Fe     0.593153474542     0.038523311113    -0.187231877320
S      1.182260548004    -2.079886238119     0.356740670567
S      1.509720740835     1.361978048963     1.403754912350
S     -1.674432972453     0.134668452556    -0.333023941776
S      1.320720033123     0.588987576468    -2.270660609051
C     -2.036431191045     1.614806724611    -1.306413111779
H     -1.310680086667     1.706234493815    -2.085262606245
H     -3.032792616615     1.552985881085    -1.735638130447
H     -2.005108585550     2.493848188290    -0.698740933130
C      0.835156712276    -3.013861304417    -1.175114842307
H      1.209806827583    -4.042548843572    -1.063287022095
H     -0.244595399995    -3.044305953230    -1.366230659129
H      1.325445172280    -2.531281178032    -2.030076712847
C      0.292216370570     2.657284255284     1.737137919400
H     -0.689724181752     2.219493050173     1.875850451333
H      0.580115983093     3.199295961114     2.649271680063
H      0.246166000773     3.357834646872     0.904645616804
C      3.036426443485     1.146013321885    -2.042619441975
H      3.682843226918     0.296344443039    -1.819199944068
H      3.388230290866     1.631789430505    -2.965247260863
H      3.093868249729     1.849410971593    -1.212804067484
