21
Best interpolated MECP guess: index=5, lambda=0.44444444
Fe     0.542742067911     0.097821886774    -0.096370330037
S      1.317477250963    -1.920289909071     0.297166635863
S      1.487192641617     1.107364163561     1.598343415562
S     -1.650793470068     0.218923237044    -0.292261733700
S      1.116095054078     0.911086468963    -2.041652517946
C     -2.157890700242     1.394806103136    -1.518847808354
H     -1.629401326172     1.189580979339    -2.368352560336
H     -3.205818266147     1.360381401146    -1.710808744354
H     -1.963119794253     2.353802531587    -1.227489727096
C      0.833128466273    -2.854180073056    -1.195851307892
H      1.204711657333    -3.886977293690    -1.108362206151
H     -0.255811890232    -2.870094042206    -1.295763196523
H      1.257471276925    -2.384938663299    -2.089959158285
C      0.576490945032     2.620021987579     1.827479016498
H     -0.463504078150     2.411694502022     1.892121870360
H      0.904162367304     3.108021438314     2.755738341536
H      0.738700182722     3.270445253481     0.989893182107
C      2.891788764285     1.206786098152    -1.955621330971
H      3.414751384233     0.270750178840    -1.852343073020
H      3.224476851611     1.716882061888    -2.872750114678
H      3.119515654977     1.815726929493    -1.098458562582
