21
lambda = 0.11111111
Fe     0.505068515200     0.142264481034    -0.028240765724
S      1.419767496504    -1.800383316640     0.252382861445
S      1.469484637804     0.916330538529     1.744702218551
S     -1.632963325132     0.282347362641    -0.261629302622
S      0.962582142428     1.152113991904    -1.870317370516
C     -2.248877602812     1.230333303296    -1.677965233177
H     -1.869545783616     0.801945279525    -2.580550100914
H     -3.335461391216     1.217706778271    -1.691202413845
H     -1.930335571295     2.248894794264    -1.624380424397
C      0.832219308132    -2.734236322824    -1.211425952965
H      1.201409900436    -3.770148223497    -1.142235580989
H     -0.263628296784    -2.739153862775    -1.242753022273
H      1.207011886340    -2.275051931663    -2.134965650851
C      0.788977275891     2.591970679655     1.895470708447
H     -0.294461012829     2.555699598066     1.904912202856
H      1.146677108802     3.039792808240     2.835570822096
H      1.107100186435     3.204462350527     1.053830085263
C      2.783307429991     1.251784550114    -1.890801626529
H      3.213642686356     0.250932747687    -1.877594781805
H      3.101627145569     1.780106526794    -2.803826864548
H      3.138762303797     1.789903106849    -1.013129717504
