21
lambda = 0.77777778
Fe     0.580512576296     0.053349647022    -0.164521066485
S      1.215917224419    -2.040007345400     0.341836683921
S      1.504151125535     1.298292416167     1.452357729129
S     -1.668550154630     0.155638072804    -0.322851831593
S      1.269548854342     0.669553280846    -2.213368156947
C     -2.066840929137     1.559700767903    -1.359527688181
H     -1.390289406288     1.577051124124    -2.156020720581
H     -3.076088321205     1.504610144859    -1.729513829535
H     -1.994780208228     2.458751339909    -0.830864611541
C      0.834600011851    -2.973973915857    -1.180327260162
H      1.208460942667    -4.003691352393    -1.074532093798
H     -0.247434093279    -3.000763434037    -1.348731376293
H      1.308475256629    -2.494751004883    -2.045047769751
C      0.363421713121     2.648045432182     1.759685612843
H     -0.633114754926     2.267708342794     1.879657199166
H      0.661192896742     3.176378523099     2.675978092443
H      0.369658331193     3.336206047918     0.926014454160
C      3.000235775654     1.161278030383    -2.020794468104
H      3.615790993726     0.290041412763    -1.827334614100
H      3.347297032257     1.653082043508    -2.942069519886
H      3.100200173264     1.841115666284    -1.184174674705
