21
Best interpolated MECP guess: index=5, lambda=0.44444444
Fe     0.568859145453     0.032817716438    -0.237229469543
S      1.150113887657    -2.090395620083     0.242014931431
S      1.733043236272     0.890393201166     1.526885466289
S     -1.532524225606    -0.421307090476    -0.908530957987
S      1.030229064036     1.604168320856    -1.769876611843
C     -2.210502016408     0.933609345458    -1.934487613660
H     -1.490510895845     1.275625142235    -2.642648423592
H     -3.086498061940     0.611466048179    -2.482914619352
H     -2.490208364770     1.768798314154    -1.335650811229
C      0.298170263229    -3.160545832230    -0.920442986885
H      0.451601023550    -4.175444762637    -0.624127107489
H     -0.779821651352    -2.945833951583    -0.961096047448
H      0.682906934687    -3.036027162803    -1.902176831065
C      1.267419192815     2.606258545483     1.648955139570
H      0.270447817959     2.676597259052     2.066061682088
H      1.970046836608     3.155424667498     2.274653221066
H      1.261430317996     3.066603070594     0.690584649471
C      2.778435482633     2.024989191110    -1.557107642289
H      3.296100940407     1.442093221008    -2.073184337354
H      2.986949969372     2.915156232997    -1.835741593725
H      3.146676143252     1.963169383580    -0.628089946453
