21
lambda = 0.11111111
Fe     0.608899854290     0.039638778998    -0.381591771198
S      0.982262051118    -2.072763646440     0.347142284684
S      2.014411631496     0.691016084618     1.320084562595
S     -1.345756188282    -0.526807894619    -1.320174677579
S      0.885843935767     1.847384724486    -1.696734489822
C     -2.117073501892     0.839290513063    -2.273891559152
H     -1.377986692674     1.342989287602    -2.893463604206
H     -2.907036188638     0.442601961284    -2.922285446636
H     -2.558615424740     1.586397535779    -1.616948928059
C      0.052168979470    -3.305296763777    -0.619174562990
H      0.165150676745    -4.278792872510    -0.140113956667
H     -1.017828438350    -3.051485042532    -0.676305273881
H      0.421191261639    -3.376478921026    -1.639094109564
C      1.578515074466     2.401837040869     1.739663423178
H      0.627574525513     2.425507675015     2.282716053257
H      2.360057334787     2.848493179698     2.371671398389
H      1.464573152614     3.007988967849     0.846230558397
C      2.598485677923     2.475536529504    -1.544291547764
H      3.165385923258     2.150045219765    -2.353410792523
H      2.629470322201     3.523421545467    -1.535079905795
H      3.072671073292     2.127091336907    -0.659097564662
