21
Coordinates from ORCA-job Sing_Q_Zero_singlet_min E -3015.097742747745
  Fe      0.605036      0.063883     -0.216844
  S       1.173998     -2.065766      0.206381
  S       1.807018      0.901254      1.542614
  S      -1.505391     -0.338044     -0.802687
  S       1.024275      1.635844     -1.762702
  C      -2.181416      0.901271     -1.939798
  H      -1.485234      1.133361     -2.658451
  H      -3.071094      0.576022     -2.440543
  H      -2.420118      1.774124     -1.448695
  C       0.279116     -3.098633     -0.953258
  H       0.436371     -4.106648     -0.695699
  H      -0.797787     -2.896649     -0.957110
  H       0.630820     -2.945209     -1.928884
  C       1.238917      2.590258      1.729808
  H       0.239438      2.574885      2.128304
  H       1.880754      3.144055      2.394518
  H       1.230984      3.110903      0.789753
  C       2.779990      1.993962     -1.611803
  H       3.253224      1.400832     -2.107028
  H       2.980404      2.835320     -1.921922
  H       3.203059      1.952588     -0.710104
21
Coordinates from ORCA-job Sing_Q_Zero_singlet_min E -3015.164120626086
  Fe      0.598698      0.065027     -0.216196
  S       1.167449     -2.054429      0.213405
  S       1.782350      0.892939      1.544660
  S      -1.505737     -0.320149     -0.789841
  S       1.026421      1.612339     -1.767162
  C      -2.181563      0.923894     -1.921926
  H      -1.468710      1.159660     -2.669150
  H      -3.085747      0.585120     -2.413707
  H      -2.421779      1.820528     -1.408495
  C       0.294285     -3.104564     -0.953221
  H       0.459551     -4.128821     -0.679475
  H      -0.785611     -2.904799     -0.962151
  H       0.660703     -2.951742     -1.947438
  C       1.208299      2.585186      1.735864
  H       0.197363      2.574755      2.131561
  H       1.855030      3.133724      2.415610
  H       1.208887      3.112009      0.786773
  C       2.785466      1.978505     -1.629315
  H       3.305784      1.313425     -2.172906
  H       2.990218      2.901148     -1.985168
  H       3.211007      1.943859     -0.675872
21
Coordinates from ORCA-job Sing_Q_Zero_singlet_min E -3015.188463685115
  Fe      0.584398      0.073068     -0.217144
  S       1.127827     -2.024681      0.258725
  S       1.736472      0.893272      1.536388
  S      -1.513925     -0.260382     -0.755618
  S       1.051126      1.536323     -1.803120
  C      -2.194768      1.000893     -1.865643
  H      -1.480715      1.239668     -2.652642
  H      -3.123936      0.644986     -2.326398
  H      -2.422366      1.914907     -1.317451
  C       0.365333     -3.101166     -0.969449
  H       0.526502     -4.139381     -0.664117
  H      -0.715527     -2.905918     -1.045340
  H       0.807516     -2.948816     -1.957306
  C       1.127257      2.580712      1.744266
  H       0.102488      2.564658      2.133550
  H       1.772058      3.119136      2.450485
  H       1.135988      3.119668      0.788314
  C       2.817804      1.901433     -1.684585
  H       3.361537      1.167502     -2.222221
  H       3.019632      2.852819     -2.117460
  H       3.217666      1.908918     -0.677385
21
Coordinates from ORCA-job Sing_Q_Zero_singlet_min E -3015.199225406074
  Fe      0.573776      0.080401     -0.216927
  S       1.089785     -1.987201      0.307866
  S       1.687594      0.895417      1.522066
  S      -1.516631     -0.182896     -0.703826
  S       1.076382      1.432781     -1.845989
  C      -2.203042      1.093814     -1.794459
  H      -1.504465      1.325593     -2.615458
  H      -3.153863      0.728870     -2.212470
  H      -2.403321      2.015539     -1.223651
  C       0.456679     -3.073252     -0.991005
  H       0.605823     -4.116485     -0.667990
  H      -0.617390     -2.881192     -1.141974
  H       0.978614     -2.912290     -1.948074
  C       1.024469      2.568006      1.746312
  H      -0.008074      2.533786      2.123758
  H       1.655523      3.098302      2.476163
  H       1.038421      3.116289      0.791364
  C       2.850769      1.795143     -1.746321
  H       3.412208      0.994465     -2.247989
  H       3.047279      2.744700     -2.269064
  H       3.211830      1.867825     -0.706483
21
Coordinates from ORCA-job Sing_Q_Zero_singlet_min E -3015.205522277709
  Fe      0.566035      0.082302     -0.216157
  S       1.061628     -1.950284      0.351877
  S       1.634448      0.902411      1.503638
  S      -1.513675     -0.098359     -0.645162
  S       1.094617      1.308989     -1.890502
  C      -2.203641      1.201881     -1.709343
  H      -1.526949      1.424770     -2.556235
  H      -3.174529      0.843255     -2.086546
  H      -2.366114      2.123290     -1.119398
  C       0.563183     -3.031443     -1.014659
  H       0.706226     -4.076856     -0.690044
  H      -0.499804     -2.850251     -1.236916
  H       1.155462     -2.847149     -1.927743
  C       0.905251      2.551797      1.738236
  H      -0.132159      2.486125      2.099015
  H       1.512419      3.081561      2.489300
  H       0.922079      3.108281      0.788115
  C       2.876729      1.665874     -1.808593
  H       3.448348      0.808523     -2.251978
  H       3.070217      2.585225     -2.422465
  H       3.202598      1.817672     -0.758592
21
Coordinates from ORCA-job Sing_Q_Zero_singlet_min E -3015.210144937741
  Fe      0.561296      0.076311     -0.214455
  S       1.050970     -1.918084      0.384860
  S       1.574302      0.915322      1.482719
  S      -1.504351     -0.008536     -0.578979
  S       1.103973      1.166823     -1.933405
  C      -2.192212      1.323343     -1.610496
  H      -1.542569      1.530605     -2.480449
  H      -3.185971      0.989059     -1.945700
  H      -2.301737      2.241203     -1.005874
  C       0.679613     -2.982030     -1.041449
  H       0.833373     -4.028425     -0.729578
  H      -0.372542     -2.825189     -1.320975
  H       1.322361     -2.757527     -1.907989
  C       0.770611      2.534595      1.718233
  H      -0.269880      2.425701      2.056307
  H       1.343873      3.071969      2.489515
  H       0.789990      3.099035      0.774625
  C       2.893316      1.519572     -1.868190
  H       3.469832      0.619177     -2.234852
  H       3.086039      2.383522     -2.569121
  H       3.192077      1.761168     -0.828898
21
Coordinates from ORCA-job Sing_Q_Zero_singlet_min E -3015.213405591191
  Fe      0.550905      0.063139     -0.214654
  S       1.043289     -1.899478      0.408369
  S       1.516334      0.939063      1.456446
  S      -1.503225      0.079878     -0.517392
  S       1.102216      1.022533     -1.977637
  C      -2.177242      1.454678     -1.506454
  H      -1.556516      1.642687     -2.395573
  H      -3.195866      1.167321     -1.803349
  H      -2.220713      2.364686     -0.889789
  C       0.803859     -2.940129     -1.068858
  H       0.986584     -3.984312     -0.775176
  H      -0.235526     -2.826403     -1.406170
  H       1.484919     -2.661449     -1.884159
  C       0.636284      2.521015      1.692138
  H      -0.402363      2.357310      2.008807
  H       1.170832      3.073705      2.478824
  H       0.649757      3.095849      0.756842
  C       2.897584      1.368048     -1.922428
  H       3.469614      0.442309     -2.194728
  H       3.100086      2.153136     -2.695239
  H       3.181552      1.704028     -0.913969
21
Coordinates from ORCA-job Sing_Q_Zero_singlet_min E -3015.215219885135
  Fe      0.554286      0.045883     -0.232897
  S       1.066359     -1.893268      0.409947
  S       1.476957      0.976949      1.416567
  S      -1.494959      0.139945     -0.490220
  S       1.115261      0.900624     -2.034723
  C      -2.150952      1.573044     -1.409554
  H      -1.570771      1.747051     -2.323244
  H      -3.197350      1.352095     -1.658785
  H      -2.111323      2.467199     -0.775871
  C       0.889147     -2.929577     -1.083729
  H       1.135765     -3.962370     -0.803822
  H      -0.152246     -2.883962     -1.427973
  H       1.554845     -2.595632     -1.886845
  C       0.509865      2.505947      1.665468
  H      -0.523845      2.270512      1.948208
  H       0.991114      3.069072      2.477653
  H       0.515758      3.107278      0.748099
  C       2.909215      1.261267     -1.970237
  H       3.483106      0.330300     -2.115816
  H       3.130723      1.944308     -2.807048
  H       3.171410      1.710950     -1.009328
21
Coordinates from ORCA-job Sing_Q_Zero_singlet_min E -3015.215942409116
  Fe      0.569494      0.039907     -0.238895
  S       1.134018     -1.886189      0.382309
  S       1.439930      1.002794      1.414683
  S      -1.480164      0.161503     -0.462756
  S       1.134677      0.862792     -2.051597
  C      -2.126207      1.613165     -1.360005
  H      -1.615310      1.730088     -2.322094
  H      -3.201400      1.455347     -1.517488
  H      -1.978520      2.516797     -0.756550
  C       0.908689     -2.924770     -1.106145
  H       1.252508     -3.938135     -0.859342
  H      -0.156105     -2.959763     -1.369561
  H       1.483151     -2.534253     -1.952403
  C       0.432560      2.507743      1.651921
  H      -0.608124      2.239298      1.872791
  H       0.858898      3.059404      2.501644
  H       0.472506      3.137465      0.754476
  C       2.930716      1.213874     -1.984299
  H       3.493691      0.278521     -2.025369
  H       3.175953      1.810000     -2.867405
  H       3.181403      1.752024     -1.068065
21
Coordinates from ORCA-job Sing_Q_Zero_singlet_min E -3015.216108244242
  Fe      0.531999      0.026977     -0.264246
  S       1.079265     -1.909260      0.384884
  S       1.434288      1.030162      1.372485
  S      -1.535705      0.195659     -0.470835
  S       1.126932      0.812989     -2.107356
  C      -2.130563      1.688842     -1.329838
  H      -1.658427      1.776361     -2.314508
  H      -3.220019      1.609765     -1.441532
  H      -1.895320      2.580708     -0.736211
  C       0.975671     -2.954677     -1.109406
  H       1.380501     -3.942934     -0.852804
  H      -0.071999     -3.066556     -1.417905
  H       1.552518     -2.519038     -1.932019
  C       0.399700      2.503725      1.659476
  H      -0.628262      2.199831      1.894226
  H       0.827316      3.054038      2.509113
  H       0.401806      3.156216      0.776744
  C       2.915707      1.170856     -2.004123
  H       3.470242      0.246610     -1.932658
  H       3.201854      1.686238     -2.913302
  H       3.144859      1.791103     -1.134339
21
Coordinates from ORCA-job Sing_Q_Zero_singlet_min E -3015.216620600189
  Fe      0.572451      0.018129     -0.294206
  S       1.183582     -1.900296      0.339310
  S       1.403478      1.043559      1.361408
  S      -1.495902      0.160251     -0.504472
  S       1.180841      0.808878     -2.128784
  C      -2.102352      1.697324     -1.272029
  H      -1.642796      1.839402     -2.258743
  H      -3.193664      1.620063     -1.372141
  H      -1.858685      2.557255     -0.632690
  C       0.934586     -2.982846     -1.111277
  H       1.399038     -3.953127     -0.883941
  H      -0.138952     -3.132418     -1.285770
  H       1.393422     -2.549744     -2.007832
  C       0.341946      2.505181      1.610548
  H      -0.689635      2.191140      1.816232
  H       0.740317      3.061609      2.470883
  H       0.363345      3.155841      0.725953
  C       2.962295      1.192069     -1.997121
  H       3.528590      0.273344     -1.868425
  H       3.265172      1.676778     -2.925812
  H       3.155291      1.855223     -1.145241
21
Coordinates from ORCA-job Sing_Q_Zero_singlet_min E -3015.216520457659
  Fe      0.570786      0.067068     -0.255681
  S       1.222471     -1.847224      0.328362
  S       1.401287      1.078360      1.400166
  S      -1.498353      0.227732     -0.401699
  S       1.153538      0.862665     -2.090723
  C      -2.095728      1.673877     -1.334892
  H      -1.692500      1.665491     -2.357397
  H      -3.193510      1.626758     -1.359978
  H      -1.783175      2.600078     -0.830007
  C       0.960710     -2.908201     -1.136552
  H       1.456761     -3.870074     -0.939176
  H      -0.113828     -3.082003     -1.277808
  H       1.380250     -2.448026     -2.039756
  C       0.308056      2.506519      1.705095
  H      -0.705247      2.165100      1.954814
  H       0.731450      3.065184      2.552400
  H       0.274017      3.164146      0.825731
  C       2.963264      1.110138     -2.028867
  H       3.470135      0.141473     -1.936338
  H       3.261770      1.594283     -2.970531
  H       3.230213      1.744272     -1.171313
21
Coordinates from ORCA-job Sing_Q_Zero_singlet_min E -3015.216830712406
  Fe      0.528546      0.005131     -0.268509
  S       1.150519     -1.915129      0.335207
  S       1.359028      1.019372      1.389068
  S      -1.540707      0.188521     -0.437006
  S       1.142684      0.784733     -2.103736
  C      -2.109515      1.704750     -1.271530
  H      -1.687017      1.768363     -2.283424
  H      -3.206749      1.670345     -1.321319
  H      -1.800295      2.588316     -0.694736
  C       0.988719     -2.963090     -1.152581
  H       1.472347     -3.925633     -0.931484
  H      -0.073870     -3.137083     -1.365604
  H       1.465348     -2.495185     -2.022329
  C       0.353334      2.525433      1.603911
  H      -0.687063      2.260951      1.834242
  H       0.787754      3.089486      2.441844
  H       0.387907      3.147889      0.699707
  C       2.927559      1.150459     -1.967037
  H       3.490611      0.219072     -1.826795
  H       3.238810      1.631555     -2.905996
  H       3.114416      1.819358     -1.116043
21
Coordinates from ORCA-job Sing_Q_Zero_singlet_min E -3015.216778603893
  Fe      0.564041      0.037230     -0.324499
  S       1.184052     -1.871275      0.336361
  S       1.391062      1.094976      1.316853
  S      -1.512592      0.190659     -0.522498
  S       1.192001      0.790183     -2.174506
  C      -2.093677      1.763500     -1.234825
  H      -1.648842      1.923416     -2.224926
  H      -3.188128      1.715743     -1.317415
  H      -1.817795      2.598932     -0.577106
  C       0.990447     -2.974342     -1.105803
  H       1.462253     -3.934031     -0.852076
  H      -0.076563     -3.141551     -1.302648
  H       1.464014     -2.549123     -1.997969
  C       0.259447      2.488952      1.628843
  H      -0.735084      2.118394      1.909767
  H       0.684274      3.076259      2.455274
  H       0.179273      3.130697      0.741477
  C       2.983289      1.120613     -2.042263
  H       3.525957      0.181458     -1.900125
  H       3.304530      1.590164     -2.979682
  H       3.190407      1.786762     -1.196383
21
Coordinates from ORCA-job Sing_Q_Zero_singlet_min E -3015.216917581561
  Fe      0.561158      0.026049     -0.301750
  S       1.185831     -1.886138      0.332620
  S       1.400548      1.068978      1.337934
  S      -1.513993      0.201981     -0.465702
  S       1.174701      0.778965     -2.152632
  C      -2.083077      1.730432     -1.277592
  H      -1.658138      1.810642     -2.286621
  H      -3.180019      1.696175     -1.332000
  H      -1.777594      2.605494     -0.686849
  C       0.966586     -2.976760     -1.116255
  H       1.439972     -3.939925     -0.877406
  H      -0.104035     -3.139563     -1.295922
  H       1.426759     -2.545417     -2.012926
  C       0.301218      2.491002      1.641783
  H      -0.705667      2.146300      1.911871
  H       0.733694      3.063908      2.474601
  H       0.247784      3.137402      0.755573
  C       2.956079      1.160325     -2.016157
  H       3.526075      0.235853     -1.864324
  H       3.266886      1.632284     -2.958766
  H       3.137595      1.839627     -1.173630
21
Coordinates from ORCA-job Sing_Q_Zero_singlet_min E -3015.216622732303
  Fe      0.505111      0.025390     -0.262773
  S       1.154112     -1.888229      0.328049
  S       1.305815      1.043412      1.406528
  S      -1.568075      0.194237     -0.429351
  S       1.130907      0.813345     -2.090751
  C      -2.138301      1.729181     -1.228366
  H      -1.707950      1.822319     -2.234120
  H      -3.234832      1.689773     -1.288462
  H      -1.839883      2.598730     -0.625557
  C       1.062379     -2.919425     -1.177731
  H       1.550121     -3.877964     -0.949037
  H       0.010889     -3.105193     -1.431691
  H       1.564368     -2.435766     -2.023969
  C       0.307819      2.556729      1.604049
  H      -0.741236      2.301962      1.803800
  H       0.725320      3.109384      2.458021
  H       0.374116      3.186424      0.706731
  C       2.941496      1.039311     -1.989606
  H       3.437944      0.063178     -1.901028
  H       3.264691      1.532801     -2.919019
  H       3.197553      1.658017     -1.119865
21
Coordinates from ORCA-job Sing_Q_Zero_singlet_min E -3015.216956718013
  Fe      0.545346      0.026394     -0.295394
  S       1.175582     -1.885680      0.331105
  S       1.373981      1.065471      1.351613
  S      -1.530605      0.197540     -0.461724
  S       1.165083      0.786525     -2.140819
  C      -2.099738      1.734812     -1.257109
  H      -1.671475      1.828305     -2.263376
  H      -3.196398      1.698810     -1.315813
  H      -1.798631      2.603126     -0.654438
  C       0.996250     -2.964209     -1.132406
  H       1.467459     -3.927503     -0.890135
  H      -0.069003     -3.129555     -1.339350
  H       1.476372     -2.523638     -2.013927
  C       0.297567      2.510295      1.628677
  H      -0.720464      2.187578      1.883444
  H       0.727441      3.078833      2.465808
  H       0.272414      3.152824      0.738433
  C       2.955919      1.124308     -2.011253
  H       3.505998      0.184249     -1.880261
  H       3.270632      1.604760     -2.948454
  H       3.158634      1.784369     -1.158771
21
Coordinates from ORCA-job Sing_Q_Zero_singlet_min E -3015.216961179258
  Fe      0.547237      0.026360     -0.299327
  S       1.178168     -1.884196      0.329779
  S       1.374511      1.069073      1.345817
  S      -1.529314      0.197871     -0.463902
  S       1.168642      0.781498     -2.146053
  C      -2.096988      1.738664     -1.253637
  H      -1.669553      1.834991     -2.259918
  H      -3.193762      1.704364     -1.311478
  H      -1.794345      2.604485     -0.648179
  C       0.995922     -2.966562     -1.130588
  H       1.462596     -3.931064     -0.884444
  H      -0.069757     -3.128003     -1.338332
  H       1.479078     -2.531036     -2.012953
  C       0.291745      2.508062      1.628080
  H      -0.723246      2.180144      1.888298
  H       0.723119      3.078879      2.462885
  H       0.258570      3.150456      0.737972
  C       2.958245      1.125056     -2.013860
  H       3.511061      0.186960     -1.880363
  H       3.273135      1.604275     -2.951544
  H       3.157302      1.787339     -1.162403
21
Coordinates from ORCA-job Sing_Q_Zero_singlet_min E -3015.216966567115
  Fe      0.549084      0.027765     -0.304761
  S       1.180058     -1.880910      0.327651
  S       1.375339      1.075363      1.337723
  S      -1.529271      0.196896     -0.466109
  S       1.173471      0.776630     -2.152719
  C      -2.095863      1.741404     -1.249602
  H      -1.666590      1.842945     -2.254418
  H      -3.192525      1.706859     -1.309812
  H      -1.795447      2.604278     -0.638933
  C       0.996124     -2.968762     -1.128480
  H       1.449309     -3.937268     -0.873215
  H      -0.069701     -3.118716     -1.343808
  H       1.491383     -2.544057     -2.009409
  C       0.285688      2.507127      1.629227
  H      -0.725940      2.173238      1.894902
  H       0.719023      3.078254      2.462799
  H       0.243693      3.151627      0.741008
  C       2.962097      1.124981     -2.018300
  H       3.517480      0.188243     -1.886058
  H       3.276501      1.604891     -2.955571
  H       3.158453      1.786826     -1.166263
21
Coordinates from ORCA-job Sing_Q_Zero_singlet_min E -3015.216968722495
  Fe      0.548622      0.028123     -0.306393
  S       1.179040     -1.879954      0.326354
  S       1.373584      1.078027      1.335133
  S      -1.530749      0.195576     -0.465900
  S       1.175291      0.774263     -2.154258
  C      -2.096763      1.741928     -1.246263
  H      -1.667972      1.845210     -2.251049
  H      -3.193492      1.707996     -1.306012
  H      -1.796010      2.603440     -0.633824
  C       0.997964     -2.968711     -1.129502
  H       1.444584     -3.939147     -0.870098
  H      -0.067244     -3.113418     -1.351221
  H       1.500866     -2.547788     -2.007951
  C       0.283343      2.508865      1.628667
  H      -0.728091      2.174472      1.894399
  H       0.716966      3.078823      2.462888
  H       0.240899      3.154778      0.741505
  C       2.963914      1.122660     -2.019294
  H       3.519247      0.185956     -1.887041
  H       3.278471      1.601748     -2.956823
  H       3.159896      1.784768     -1.167465
21
Coordinates from ORCA-job Sing_Q_Zero_singlet_min E -3015.216970088364
  Fe      0.548301      0.028508     -0.306434
  S       1.176947     -1.879832      0.325754
  S       1.372641      1.079593      1.334590
  S      -1.531665      0.193705     -0.465438
  S       1.176476      0.774109     -2.153530
  C      -2.098140      1.740447     -1.244702
  H      -1.669596      1.844511     -2.249513
  H      -3.194885      1.706170     -1.304267
  H      -1.797758      2.601636     -0.631607
  C       0.998310     -2.967961     -1.130883
  H       1.441921     -3.939391     -0.870048
  H      -0.066378     -3.110200     -1.356574
  H       1.505392     -2.547921     -2.007383
  C       0.283244      2.511023      1.628319
  H      -0.728653      2.177314      1.893100
  H       0.716780      3.079779      2.463405
  H       0.242077      3.157858      0.741776
  C       2.965417      1.121178     -2.019146
  H       3.520013      0.184045     -1.887122
  H       3.279842      1.599715     -2.956993
  H       3.162079      1.783330     -1.167454
