21
Coordinates from ORCA-job Rubredoxin_zero_singlet_quintet_singlet_min
  Fe  0.54830116048399      0.02850811106556     -0.30643358795390
  S   1.17694673090733     -1.87983207315836      0.32575370898924
  S   1.37264120946817      1.07959275214296      1.33458992218046
  S   -1.53166475056675      0.19370444062776     -0.46543825268488
  S   1.17647586030515      0.77410873120535     -2.15353040396877
  C   -2.09814012002771      1.74044677825661     -1.24470223624542
  H   -1.66959646078459      1.84451127348843     -2.24951253898837
  H   -3.19488556982737      1.70616930349525     -1.30426648445259
  H   -1.79775793199236      2.60163576123909     -0.63160724429988
  C   0.99831021335127     -2.96796086490029     -1.13088321679519
  H   1.44192022963561     -3.93939069195618     -0.87004814924990
  H   -0.06637830358536     -3.11019928191933     -1.35657401273286
  H   1.50539254814114     -2.54792125327414     -2.00738236973804
  C   0.28324406985359      2.51102279359216      1.62831876353733
  H   -0.72865284433405      2.17731435737364      1.89310018956988
  H   0.71678009888575      3.07977884486167      2.46340533293421
  H   0.24207761874202      3.15785803772184      0.74177614903897
  C   2.96541731845737      1.12117799042938     -2.01914645016411
  H   3.52001297419318      0.18404508092559     -1.88712188996261
  H   3.27984168775171      1.59971498282398     -2.95699286030555
  H   3.16207930094290      1.78333016595602     -1.16745427870702
