21
Coordinates from ORCA-job Rubredoxin_zero_singlet_quintet_quintet_min
  Fe  0.71834657490502     -0.03008436514180     -0.26267948013804
  S   0.98869594933862     -2.12310797193631      0.36317118210106
  S   1.89144095238614      0.95010414225268      1.31648112820499
  S   -1.41167320789436     -0.22810145713405     -0.75468418437066
  S   1.26712473456696      1.10811406642979     -2.04978925838982
  C   -2.01467287757003      1.23571638806092     -1.65470029971326
  H   -1.49194941645133      1.33709212991546     -2.61479350873938
  H   -3.08720531160155      1.07997861345158     -1.83542435076977
  H   -1.87121174905180      2.14993084841793     -1.06670535688295
  C   0.33718394959402     -3.19013660909905     -0.96334772307665
  H   0.57945964228705     -4.22784395327196     -0.69806107721595
  H   -0.75207610322252     -3.07223173239119     -1.03542058823135
  H   0.79504067057783     -2.94005081647473     -1.92761956141964
  C   0.89097605911844      2.43228986259828      1.69082789933766
  H   -0.12620277508686      2.15000725363026      1.98768239334987
  H   1.37841124265062      2.95674657423446      2.52332665669153
  H   0.84856380296145      3.09764352558636      0.81872279168806
  C   2.85265634104658      1.97763941911891     -1.82231982228414
  H   3.62311003881000      1.29295933809685     -1.45103361750533
  H   3.14662405240447      2.36731261355954     -2.80674365301711
  H   2.73972247023225      2.81363737009306     -1.12103947961811
