21
Coordinates from ORCA-job Sing_Q_Zero_quintet_min E -3015.122750431816
  Fe      0.605036      0.063883     -0.216844
  S       1.173998     -2.065766      0.206381
  S       1.807018      0.901254      1.542614
  S      -1.505391     -0.338044     -0.802687
  S       1.024275      1.635844     -1.762702
  C      -2.181416      0.901271     -1.939798
  H      -1.485234      1.133361     -2.658451
  H      -3.071094      0.576022     -2.440543
  H      -2.420118      1.774124     -1.448695
  C       0.279116     -3.098633     -0.953258
  H       0.436371     -4.106648     -0.695699
  H      -0.797787     -2.896649     -0.957110
  H       0.630820     -2.945209     -1.928884
  C       1.238917      2.590258      1.729808
  H       0.239438      2.574885      2.128304
  H       1.880754      3.144055      2.394518
  H       1.230984      3.110903      0.789753
  C       2.779990      1.993962     -1.611803
  H       3.253224      1.400832     -2.107028
  H       2.980404      2.835320     -1.921922
  H       3.203059      1.952588     -0.710104
21
Coordinates from ORCA-job Sing_Q_Zero_quintet_min E -3015.187068505753
  Fe      0.596353      0.060920     -0.214789
  S       1.163944     -2.066475      0.210021
  S       1.793652      0.891569      1.542377
  S      -1.512268     -0.330272     -0.802004
  S       1.016696      1.630706     -1.758858
  C      -2.178122      0.917478     -1.936040
  H      -1.458257      1.152200     -2.678143
  H      -3.077815      0.579172     -2.436186
  H      -2.420894      1.814484     -1.423706
  C       0.280309     -3.121704     -0.947955
  H       0.449426     -4.144729     -0.671652
  H      -0.799071     -2.925194     -0.951525
  H       0.641013     -2.970842     -1.944576
  C       1.228084      2.588247      1.736176
  H       0.220071      2.581656      2.138719
  H       1.881791      3.133539      2.411708
  H       1.224245      3.115564      0.787713
  C       2.775713      2.000844     -1.620620
  H       3.299031      1.342143     -2.171599
  H       2.976609      2.929468     -1.966474
  H       3.201855      1.958839     -0.666735
21
Coordinates from ORCA-job Sing_Q_Zero_quintet_min E -3015.204977522885
  Fe      0.587540      0.053681     -0.220240
  S       1.135753     -2.068308      0.229896
  S       1.776134      0.884046      1.525276
  S      -1.518375     -0.309290     -0.812043
  S       1.025306      1.601414     -1.774072
  C      -2.173289      0.971204     -1.915695
  H      -1.439155      1.213962     -2.685240
  H      -3.087724      0.615698     -2.405141
  H      -2.412112      1.880832     -1.363765
  C       0.299397     -3.160695     -0.944963
  H       0.482637     -4.194300     -0.635594
  H      -0.782894     -2.974366     -0.967939
  H       0.692280     -3.015845     -1.954547
  C       1.195370      2.586098      1.738281
  H       0.178071      2.583424      2.145897
  H       1.860355      3.112740      2.434400
  H       1.194765      3.125785      0.783403
  C       2.787923      1.994897     -1.649110
  H       3.348637      1.289236     -2.206552
  H       2.968810      2.965148     -2.047693
  H       3.182932      1.982255     -0.638711
21
Coordinates from ORCA-job Sing_Q_Zero_quintet_min E -3015.209027914669
  Fe      0.593805      0.036321     -0.247853
  S       1.094583     -2.076503      0.264431
  S       1.782252      0.887932      1.467776
  S      -1.511324     -0.289992     -0.839398
  S       1.065437      1.527456     -1.837775
  C      -2.171522      1.049779     -1.868825
  H      -1.452374      1.313332     -2.659570
  H      -3.103444      0.701404     -2.335699
  H      -2.384826      1.942932     -1.264537
  C       0.326397     -3.198695     -0.938959
  H       0.502679     -4.228026     -0.594261
  H      -0.753878     -3.013603     -1.009419
  H       0.772479     -3.068804     -1.934766
  C       1.139958      2.570075      1.722728
  H       0.123995      2.533412      2.137566
  H       1.798945      3.087267      2.434452
  H       1.120779      3.127570      0.775921
  C       2.815633      1.985333     -1.678054
  H       3.439352      1.232279     -2.160694
  H       2.973462      2.949148     -2.169610
  H       3.129977      2.068997     -0.627603
21
Coordinates from ORCA-job Sing_Q_Zero_quintet_min E -3015.210319507692
  Fe      0.603140      0.024776     -0.265778
  S       1.048571     -2.078445      0.307078
  S       1.796523      0.902075      1.416378
  S      -1.502156     -0.267502     -0.853840
  S       1.103466      1.452486     -1.896723
  C      -2.162366      1.119557     -1.822207
  H      -1.467230      1.386520     -2.634081
  H      -3.117088      0.793874     -2.257904
  H      -2.331716      1.999453     -1.184923
  C       0.356663     -3.214264     -0.934250
  H       0.516444     -4.238654     -0.568159
  H      -0.718175     -3.029522     -1.062356
  H       0.860308     -3.090437     -1.902887
  C       1.075788      2.547286      1.720991
  H       0.066155      2.456399      2.142290
  H       1.720143      3.066496      2.443779
  H       1.026960      3.124687      0.787788
  C       2.840632      1.964634     -1.720122
  H       3.505600      1.177451     -2.109862
  H       2.988521      2.888482     -2.305234
  H       3.092182      2.152263     -0.664127
21
Coordinates from ORCA-job Sing_Q_Zero_quintet_min E -3015.211240694170
  Fe      0.624234      0.005213     -0.278483
  S       1.011226     -2.088090      0.340999
  S       1.825965      0.904862      1.364796
  S      -1.481380     -0.254034     -0.856277
  S       1.139940      1.369524     -1.948357
  C      -2.128111      1.165590     -1.790658
  H      -1.460947      1.410588     -2.630583
  H      -3.110677      0.868857     -2.181731
  H      -2.236836      2.045316     -1.142662
  C       0.356157     -3.224722     -0.923562
  H       0.501275     -4.247144     -0.549266
  H      -0.713782     -3.033714     -1.079553
  H       0.890246     -3.103142     -1.874713
  C       1.032169      2.510077      1.713077
  H       0.029359      2.366247      2.134606
  H       1.659410      3.031964      2.447805
  H       0.958706      3.105907      0.793886
  C       2.845220      1.981437     -1.747719
  H       3.567923      1.187490     -2.015849
  H       2.975469      2.841670     -2.432851
  H       3.016797      2.293720     -0.707054
21
Coordinates from ORCA-job Sing_Q_Zero_quintet_min E -3015.211923917363
  Fe      0.656799      0.001595     -0.283565
  S       0.992019     -2.080139      0.372522
  S       1.850688      0.928539      1.326771
  S      -1.444503     -0.242240     -0.859020
  S       1.180812      1.303282     -1.988696
  C      -2.087207      1.207683     -1.753796
  H      -1.452598      1.439711     -2.619184
  H      -3.094433      0.940026     -2.099588
  H      -2.139541      2.082198     -1.095283
  C       0.357591     -3.210127     -0.911495
  H       0.500921     -4.233596     -0.542556
  H      -0.711081     -3.019740     -1.075907
  H       0.903238     -3.078282     -1.853039
  C       0.953962      2.467217      1.731604
  H      -0.037104      2.243835      2.144522
  H       1.548618      2.997667      2.486240
  H       0.845624      3.090442      0.834851
  C       2.869428      1.973279     -1.811046
  H       3.616209      1.173597     -1.964877
  H       2.996625      2.746355     -2.590594
  H       2.996298      2.406314     -0.812014
21
Coordinates from ORCA-job Sing_Q_Zero_quintet_min E -3015.212349012178
  Fe      0.685762     -0.038527     -0.283286
  S       0.967182     -2.116403      0.387393
  S       1.884050      0.898522      1.300070
  S      -1.416690     -0.255677     -0.849437
  S       1.219691      1.213243     -2.012247
  C      -2.038785      1.210803     -1.734341
  H      -1.430811      1.410225     -2.625006
  H      -3.068971      0.979859     -2.036066
  H      -2.031357      2.091938     -1.084158
  C       0.316721     -3.226245     -0.907478
  H       0.462049     -4.255526     -0.556651
  H      -0.753525     -3.032303     -1.056772
  H       0.852135     -3.079313     -1.851929
  C       0.973077      2.437256      1.675711
  H      -0.029549      2.211203      2.057385
  H       1.543822      2.969917      2.447000
  H       0.893252      3.060750      0.776329
  C       2.830360      2.040420     -1.776799
  H       3.642665      1.300015     -1.767920
  H       2.967605      2.719924     -2.630419
  H       2.833682      2.597534     -0.835528
21
Coordinates from ORCA-job Sing_Q_Zero_quintet_min E -3015.212566038884
  Fe      0.702944     -0.018537     -0.273264
  S       0.959171     -2.094052      0.402473
  S       1.906084      0.935076      1.286814
  S      -1.404912     -0.231770     -0.817113
  S       1.229478      1.191557     -2.026449
  C      -2.022135      1.225267     -1.720265
  H      -1.461980      1.364942     -2.652617
  H      -3.078868      1.032983     -1.949830
  H      -1.938062      2.129709     -1.108055
  C       0.329784     -3.190850     -0.913055
  H       0.504419     -4.224814     -0.588908
  H      -0.746256     -3.024213     -1.054164
  H       0.854941     -3.006701     -1.856961
  C       0.915535      2.408314      1.720136
  H      -0.072002      2.112375      2.093224
  H       1.456693      2.946348      2.509281
  H       0.798745      3.061924      0.846205
  C       2.850834      2.006676     -1.833268
  H       3.638439      1.262380     -1.701798
  H       3.033295      2.568786     -2.752869
  H       2.846219      2.682215     -0.973666
21
Coordinates from ORCA-job Sing_Q_Zero_quintet_min E -3015.212698865708
  Fe      0.720824     -0.028709     -0.275254
  S       0.986277     -2.110380      0.377934
  S       1.910955      0.922725      1.296525
  S      -1.386918     -0.253186     -0.819881
  S       1.244800      1.189989     -2.021501
  C      -2.014182      1.204880     -1.713012
  H      -1.484836      1.328001     -2.666568
  H      -3.081361      1.027111     -1.903779
  H      -1.895276      2.114410     -1.112777
  C       0.302635     -3.194121     -0.920524
  H       0.510343     -4.231124     -0.625320
  H      -0.781947     -3.042817     -1.000871
  H       0.772600     -2.985568     -1.888761
  C       0.927377      2.410115      1.696994
  H      -0.077788      2.128795      2.032886
  H       1.446337      2.939505      2.506862
  H       0.852202      3.067968      0.821407
  C       2.847879      2.033745     -1.807897
  H       3.634527      1.310364     -1.581552
  H       3.071736      2.531710     -2.756607
  H       2.796182      2.774202     -1.002454
21
Coordinates from ORCA-job Sing_Q_Zero_quintet_min E -3015.212766482520
  Fe      0.696909     -0.041827     -0.268527
  S       0.939081     -2.132061      0.380587
  S       1.908120      0.899625      1.304674
  S      -1.424569     -0.236623     -0.791718
  S       1.240761      1.152222     -2.026863
  C      -2.034865      1.218019     -1.697758
  H      -1.529587      1.302993     -2.670404
  H      -3.112372      1.070991     -1.855953
  H      -1.871776      2.139722     -1.124545
  C       0.324865     -3.216488     -0.948636
  H       0.568183     -4.250912     -0.668863
  H      -0.763113     -3.107799     -1.050562
  H       0.803860     -2.972517     -1.905155
  C       0.971090      2.425550      1.666624
  H      -0.055116      2.186533      1.971358
  H       1.481326      2.942577      2.490392
  H       0.948080      3.081875      0.786508
  C       2.814320      2.031459     -1.766424
  H       3.578323      1.351311     -1.376851
  H       3.128473      2.421283     -2.743929
  H       2.690372      2.871683     -1.068104
21
Coordinates from ORCA-job Sing_Q_Zero_quintet_min E -3015.212832872486
  Fe      0.717368     -0.026462     -0.275967
  S       0.975437     -2.115020      0.370683
  S       1.925015      0.924347      1.293176
  S      -1.403973     -0.235649     -0.792011
  S       1.245979      1.167861     -2.038124
  C      -2.018283      1.209023     -1.712421
  H      -1.495827      1.301157     -2.674550
  H      -3.089535      1.042596     -1.891448
  H      -1.881969      2.133334     -1.137679
  C       0.306737     -3.199500     -0.932350
  H       0.543884     -4.234760     -0.652039
  H      -0.782264     -3.075595     -1.000617
  H       0.759587     -2.969144     -1.904338
  C       0.944062      2.409468      1.705786
  H      -0.066640      2.129946      2.026979
  H       1.454858      2.925811      2.529399
  H       0.880860      3.081579      0.839951
  C       2.832481      2.031838     -1.802956
  H       3.604422      1.339136     -1.449501
  H       3.120678      2.441067     -2.781667
  H       2.729489      2.856582     -1.084454
21
Coordinates from ORCA-job Sing_Q_Zero_quintet_min E -3015.212846215647
  Fe      0.718193     -0.027702     -0.278046
  S       0.980670     -2.115258      0.368401
  S       1.899414      0.933595      1.303868
  S      -1.397148     -0.250096     -0.812739
  S       1.257884      1.160936     -2.039407
  C      -2.028688      1.225047     -1.672529
  H      -1.489436      1.379556     -2.616034
  H      -3.090931      1.040354     -1.883598
  H      -1.929098      2.121189     -1.049343
  C       0.323565     -3.199226     -0.941061
  H       0.552635     -4.234382     -0.655569
  H      -0.764041     -3.070501     -1.021461
  H       0.788515     -2.973057     -1.907621
  C       0.913365      2.423387      1.685595
  H      -0.103838      2.148782      1.989418
  H       1.409939      2.944410      2.514692
  H       0.869329      3.088444      0.813445
  C       2.857552      2.003098     -1.812182
  H       3.627488      1.297793     -1.480807
  H       3.135958      2.424831     -2.788084
  H       2.771038      2.816415     -1.081087
21
Coordinates from ORCA-job Sing_Q_Zero_quintet_min E -3015.212875860610
  Fe      0.715715     -0.025803     -0.267476
  S       0.975062     -2.116135      0.371151
  S       1.906225      0.934255      1.308440
  S      -1.405259     -0.239478     -0.785217
  S       1.249198      1.153931     -2.035429
  C      -2.020453      1.219823     -1.683439
  H      -1.485202      1.339416     -2.634194
  H      -3.086547      1.044294     -1.882653
  H      -1.904197      2.131970     -1.086950
  C       0.322930     -3.194055     -0.945707
  H       0.552057     -4.230344     -0.664460
  H      -0.764632     -3.065890     -1.027811
  H       0.789944     -2.962848     -1.910031
  C       0.919891      2.422013      1.697320
  H      -0.096834      2.146477      2.001856
  H       1.417897      2.939718      2.527647
  H       0.874825      3.090404      0.827767
  C       2.845728      2.003492     -1.814084
  H       3.618818      1.305069     -1.474399
  H       3.123486      2.417091     -2.794199
  H       2.753713      2.824217     -1.092282
21
Coordinates from ORCA-job Sing_Q_Zero_quintet_min E -3015.212896397582
  Fe      0.721838     -0.025376     -0.268965
  S       0.978420     -2.117157      0.368920
  S       1.914132      0.942175      1.303835
  S      -1.404760     -0.232561     -0.773073
  S       1.258780      1.133354     -2.048633
  C      -2.012098      1.222611     -1.683311
  H      -1.484407      1.324731     -2.640555
  H      -3.082021      1.057167     -1.870862
  H      -1.880309      2.140932     -1.099153
  C       0.320140     -3.193174     -0.945916
  H       0.550510     -4.229983     -0.666956
  H      -0.767815     -3.064993     -1.022427
  H       0.782135     -2.960922     -1.912617
  C       0.914298      2.417638      1.704268
  H      -0.099035      2.130989      2.010028
  H       1.409429      2.935432      2.536435
  H       0.860595      3.091100      0.839018
  C       2.842591      2.003687     -1.819825
  H       3.619384      1.320469     -1.458794
  H       3.129015      2.405982     -2.802289
  H       2.731542      2.835513     -1.113276
21
Coordinates from ORCA-job Sing_Q_Zero_quintet_min E -3015.212908504326
  Fe      0.720267     -0.026803     -0.262005
  S       0.977658     -2.121006      0.367608
  S       1.905398      0.945846      1.313690
  S      -1.409161     -0.230467     -0.759121
  S       1.261267      1.118440     -2.047433
  C      -2.011279      1.226740     -1.670176
  H      -1.488735      1.322235     -2.630877
  H      -3.083578      1.068573     -1.850491
  H      -1.869269      2.145629     -1.089257
  C       0.328078     -3.190787     -0.956716
  H       0.561423     -4.228509     -0.683593
  H      -0.760090     -3.066204     -1.035645
  H       0.792377     -2.950290     -1.920306
  C       0.905343      2.425250      1.699022
  H      -0.111873      2.142727      1.995537
  H       1.393841      2.944114      2.534448
  H       0.862801      3.096194      0.831201
  C       2.844287      1.991077     -1.820910
  H       3.620040      1.311691     -1.451003
  H       3.134390      2.384344     -2.805777
  H       2.729179      2.828822     -1.122345
21
Coordinates from ORCA-job Sing_Q_Zero_quintet_min E -3015.212914963653
  Fe      0.720064     -0.028907     -0.261491
  S       0.981115     -2.123565      0.365211
  S       1.897958      0.948089      1.317405
  S      -1.410164     -0.231032     -0.757019
  S       1.266271      1.109407     -2.049160
  C      -2.012454      1.231321     -1.659916
  H      -1.492379      1.329869     -2.621754
  H      -3.085663      1.076276     -1.837590
  H      -1.866720      2.147151     -1.074943
  C       0.332689     -3.191349     -0.961558
  H       0.569291     -4.229252     -0.691776
  H      -0.755839     -3.069451     -1.038988
  H       0.795611     -2.946378     -1.924762
  C       0.897803      2.430169      1.692654
  H      -0.121015      2.149608      1.985523
  H       1.383199      2.951456      2.528391
  H       0.859917      3.098100      0.822282
  C       2.848209      1.984108     -1.820791
  H       3.622836      1.304832     -1.448728
  H       3.140851      2.375707     -2.805189
  H       2.730787      2.821454     -1.121953
21
Coordinates from ORCA-job Sing_Q_Zero_quintet_min E -3015.212917863372
  Fe      0.718794     -0.029904     -0.261310
  S       0.983931     -2.124212      0.364111
  S       1.893003      0.948802      1.318906
  S      -1.411384     -0.230663     -0.756053
  S       1.267217      1.107486     -2.048798
  C      -2.014171      1.233758     -1.655334
  H      -1.493491      1.334771     -2.616612
  H      -3.087259      1.078948     -1.833797
  H      -1.868794      2.147901     -1.067636
  C       0.335799     -3.191231     -0.963762
  H       0.575199     -4.229081     -0.696295
  H      -0.753030     -3.071547     -1.039761
  H       0.797346     -2.943125     -1.926826
  C       0.894042      2.432958      1.689634
  H      -0.125113      2.153543      1.982411
  H       1.379360      2.955907      2.524351
  H       0.857101      3.098727      0.817578
  C       2.850815      1.979923     -1.820728
  H       3.623716      1.297557     -1.450735
  H       3.143671      2.371938     -2.804598
  H       2.735612      2.815158     -1.118897
21
Coordinates from ORCA-job Sing_Q_Zero_quintet_min E -3015.212919256349
  Fe      0.718472     -0.030125     -0.262078
  S       0.986835     -2.123729      0.363438
  S       1.891570      0.949535      1.317835
  S      -1.411592     -0.229486     -0.755543
  S       1.267409      1.107659     -2.049265
  C      -2.014698      1.235029     -1.654418
  H      -1.492679      1.336952     -2.614863
  H      -3.087411      1.079588     -1.834424
  H      -1.870679      2.148810     -1.065856
  C       0.336758     -3.190728     -0.963723
  H       0.578163     -4.228470     -0.697725
  H      -0.752353     -3.072324     -1.037305
  H       0.796039     -2.941128     -1.927465
  C       0.892005      2.433014      1.689744
  H      -0.126203      2.152276      1.984534
  H       1.378359      2.956941      2.523220
  H       0.852434      3.098291      0.817438
  C       2.852201      1.978396     -1.821536
  H       3.623613      1.294232     -1.451521
  H       3.145578      2.369503     -2.805514
  H       2.738544      2.813378     -1.119121
21
Coordinates from ORCA-job Sing_Q_Zero_quintet_min E -3015.212919932512
  Fe      0.718347     -0.030084     -0.262679
  S       0.988696     -2.123108      0.363171
  S       1.891441      0.950104      1.316481
  S      -1.411673     -0.228102     -0.754684
  S       1.267125      1.108114     -2.049789
  C      -2.014673      1.235716     -1.654700
  H      -1.491950      1.337092     -2.614793
  H      -3.087205      1.079979     -1.835424
  H      -1.871212      2.149931     -1.066705
  C       0.337184     -3.190137     -0.963348
  H       0.579460     -4.227844     -0.698061
  H      -0.752076     -3.072232     -1.035421
  H       0.795041     -2.940051     -1.927620
  C       0.890976      2.432290      1.690828
  H      -0.126203      2.150008      1.987682
  H       1.378411      2.956747      2.523326
  H       0.848564      3.097644      0.818722
  C       2.852656      1.977639     -1.822320
  H       3.623110      1.292959     -1.451034
  H       3.146624      2.367313     -2.806743
  H       2.739723      2.813637     -1.121039
