21
Coordinates from ORCA-job Rubredoxin_minus1_doublet_sextet_doublet_min E -3015.198240208431
  Fe      0.605036      0.063883     -0.216844
  S       1.173998     -2.065766      0.206381
  S       1.807018      0.901254      1.542614
  S      -1.505391     -0.338044     -0.802687
  S       1.024275      1.635844     -1.762702
  C      -2.181416      0.901271     -1.939798
  H      -1.485234      1.133361     -2.658451
  H      -3.071094      0.576022     -2.440543
  H      -2.420118      1.774124     -1.448695
  C       0.279116     -3.098633     -0.953258
  H       0.436371     -4.106648     -0.695699
  H      -0.797787     -2.896649     -0.957110
  H       0.630820     -2.945209     -1.928884
  C       1.238917      2.590258      1.729808
  H       0.239438      2.574885      2.128304
  H       1.880754      3.144055      2.394518
  H       1.230984      3.110903      0.789753
  C       2.779990      1.993962     -1.611803
  H       3.253224      1.400832     -2.107028
  H       2.980404      2.835320     -1.921922
  H       3.203059      1.952588     -0.710104
21
Coordinates from ORCA-job Rubredoxin_minus1_doublet_sextet_doublet_min E -3015.263546925947
  Fe      0.594356      0.061940     -0.212186
  S       1.167515     -2.062198      0.213058
  S       1.792926      0.886503      1.548125
  S      -1.515171     -0.326484     -0.796536
  S       1.013795      1.626471     -1.758522
  C      -2.181266      0.922711     -1.934710
  H      -1.461999      1.156471     -2.677371
  H      -3.083461      0.588874     -2.435831
  H      -2.421333      1.821822     -1.424413
  C       0.287107     -3.121247     -0.947379
  H       0.457847     -4.145766     -0.673978
  H      -0.792983     -2.927376     -0.953752
  H       0.647702     -2.968721     -1.944193
  C       1.225879      2.585773      1.735679
  H       0.215693      2.581131      2.134487
  H       1.876160      3.136338      2.412026
  H       1.223974      3.111260      0.785527
  C       2.775777      1.996014     -1.622826
  H       3.298544      1.336155     -2.171754
  H       2.979512      2.922980     -1.970490
  H       3.201791      1.954966     -0.669109
21
Coordinates from ORCA-job Rubredoxin_minus1_doublet_sextet_doublet_min E -3015.282741163715
  Fe      0.559793      0.061359     -0.191428
  S       1.127187     -2.052193      0.248345
  S       1.756709      0.858560      1.566856
  S      -1.550103     -0.293202     -0.768911
  S       0.994235      1.599373     -1.745177
  C      -2.193271      0.961229     -1.924243
  H      -1.456343      1.174212     -2.700323
  H      -3.116288      0.612005     -2.408293
  H      -2.418627      1.895458     -1.406207
  C       0.324670     -3.144416     -0.958990
  H       0.511380     -4.185508     -0.668249
  H      -0.759160     -2.968340     -1.006864
  H       0.732874     -2.981261     -1.961403
  C       1.225622      2.588295      1.730365
  H       0.196681      2.630490      2.110395
  H       1.886578      3.118731      2.431821
  H       1.261971      3.109045      0.763981
  C       2.767522      1.978738     -1.631918
  H       3.322123      1.268198     -2.190371
  H       2.963198      2.947134     -2.031201
  H       3.165616      1.959707     -0.622335
21
Coordinates from ORCA-job Rubredoxin_minus1_doublet_sextet_doublet_min E -3015.286989581957
  Fe      0.516093      0.072084     -0.158580
  S       1.056215     -2.031638      0.306142
  S       1.736645      0.838881      1.579093
  S      -1.602099     -0.232997     -0.703035
  S       0.968586      1.560179     -1.737791
  C      -2.213996      0.983474     -1.920639
  H      -1.485272      1.116390     -2.736031
  H      -3.166149      0.630456     -2.349384
  H      -2.385515      1.963707     -1.448256
  C       0.378261     -3.125846     -0.985718
  H       0.562856     -4.173249     -0.692720
  H      -0.701253     -2.961685     -1.112229
  H       0.866098     -2.938679     -1.955364
  C       1.235904      2.587698      1.742580
  H       0.195146      2.662569      2.091922
  H       1.890736      3.085733      2.477028
  H       1.315787      3.113171      0.778699
  C       2.751958      1.937351     -1.645542
  H       3.326770      1.164587     -2.160936
  H       2.948133      2.901378     -2.128718
  H       3.107462      1.984051     -0.604671
21
Coordinates from ORCA-job Rubredoxin_minus1_doublet_sextet_doublet_min E -3015.288116768275
  Fe      0.525415      0.119134     -0.141178
  S       1.062121     -1.971291      0.333752
  S       1.768514      0.864367      1.572282
  S      -1.599706     -0.157372     -0.642147
  S       0.968225      1.565956     -1.743739
  C      -2.202898      0.994315     -1.929105
  H      -1.502806      1.031075     -2.781483
  H      -3.186056      0.645576     -2.285187
  H      -2.310849      2.015303     -1.525249
  C       0.415743     -3.055595     -0.987793
  H       0.610676     -4.105362     -0.708124
  H      -0.664293     -2.897093     -1.118678
  H       0.913936     -2.846151     -1.948623
  C       1.162688      2.569690      1.850710
  H       0.115296      2.566291      2.188462
  H       1.781512      3.042649      2.631525
  H       1.224004      3.162753      0.925587
  C       2.775770      1.853356     -1.757525
  H       3.297437      1.009799     -2.250204
  H       2.989986      2.784345     -2.322482
  H       3.157650      1.945869     -0.724951
21
Coordinates from ORCA-job Rubredoxin_minus1_doublet_sextet_doublet_min E -3015.288990367868
  Fe      0.485745      0.097338     -0.118379
  S       1.012844     -1.974382      0.366666
  S       1.735471      0.804688      1.578171
  S      -1.641680     -0.119962     -0.587696
  S       0.939492      1.488467     -1.738921
  C      -2.235420      0.985257     -1.923438
  H      -1.565446      0.940680     -2.798085
  H      -3.243625      0.653189     -2.216047
  H      -2.281624      2.029946     -1.575819
  C       0.445294     -3.023443     -1.022971
  H       0.643093     -4.077779     -0.769061
  H      -0.630317     -2.867247     -1.188154
  H       0.982975     -2.774033     -1.950826
  C       1.232035      2.558246      1.770982
  H       0.167833      2.642195      2.035071
  H       1.831122      3.000824      2.582847
  H       1.399296      3.111917      0.835609
  C       2.735938      1.858653     -1.666743
  H       3.335465      0.995315     -2.053021
  H       2.938020      2.754569     -2.308527
  H       3.015854      2.053176     -0.615809
21
Coordinates from ORCA-job Rubredoxin_minus1_doublet_sextet_doublet_min E -3015.290094901004
  Fe      0.483378      0.146389     -0.076758
  S       1.038298     -1.904123      0.396432
  S       1.718660      0.835366      1.612698
  S      -1.641641     -0.038446     -0.522736
  S       0.923661      1.502138     -1.705538
  C      -2.240835      1.004195     -1.908227
  H      -1.607700      0.874123     -2.797046
  H      -3.271096      0.695852     -2.138461
  H      -2.228211      2.066591     -1.629286
  C       0.530293     -2.908270     -1.049895
  H       0.759233     -3.963837     -0.839510
  H      -0.547380     -2.776490     -1.220524
  H       1.072868     -2.598538     -1.953163
  C       1.141387      2.560211      1.854714
  H       0.066954      2.593001      2.081378
  H       1.695691      2.988655      2.703867
  H       1.321688      3.153177      0.947112
  C       2.750833      1.697128     -1.764536
  H       3.239316      0.773016     -2.161340
  H       2.985151      2.548734     -2.449479
  H       3.111816      1.888743     -0.743852
21
Coordinates from ORCA-job Rubredoxin_minus1_doublet_sextet_doublet_min E -3015.291271043518
  Fe      0.552326      0.173271     -0.093764
  S       1.159193     -1.845873      0.365431
  S       1.782740      0.866520      1.566461
  S      -1.575240      0.038344     -0.477086
  S       0.948745      1.460807     -1.757827
  C      -2.209357      0.992487     -1.912376
  H      -1.630117      0.762412     -2.812877
  H      -3.262045      0.715377     -2.064682
  H      -2.135922      2.068864     -1.723829
  C       0.506634     -2.829271     -1.037631
  H       0.764290     -3.885564     -0.874385
  H      -0.583881     -2.703761     -1.085388
  H       0.945715     -2.494864     -1.984288
  C       1.067297      2.520256      1.910127
  H      -0.006065      2.445211      2.127466
  H       1.583305      2.942830      2.786297
  H       1.201595      3.177981      1.040540
  C       2.778119      1.655004     -1.817888
  H       3.264247      0.717658     -2.143527
  H       3.010660      2.445098     -2.554057
  H       3.140127      1.914829     -0.820867
21
Coordinates from ORCA-job Rubredoxin_minus1_doublet_sextet_doublet_min E -3015.291895432858
  Fe      0.496834      0.172588     -0.023373
  S       1.131966     -1.833797      0.401126
  S       1.687260      0.862221      1.648443
  S      -1.626934      0.121630     -0.393678
  S       0.898692      1.407000     -1.707064
  C      -2.257695      1.025873     -1.862681
  H      -1.712466      0.718307     -2.759494
  H      -3.326649      0.799292     -1.982262
  H      -2.127806      2.105200     -1.736432
  C       0.648332     -2.735516     -1.120569
  H       0.937068     -3.791663     -1.013076
  H      -0.437634     -2.651513     -1.261368
  H       1.152201     -2.311448     -1.995498
  C       1.047267      2.562027      1.896847
  H      -0.039209      2.540512      2.048331
  H       1.531456      2.998068      2.785620
  H       1.266610      3.182191      1.017143
  C       2.734263      1.482320     -1.805817
  H       3.139486      0.520762     -2.096136
  H       3.002968      2.211060     -2.563238
  H       3.156354      1.752501     -0.840973
21
Coordinates from ORCA-job Rubredoxin_minus1_doublet_sextet_doublet_min E -3015.292730096568
  Fe      0.516288      0.167939     -0.023578
  S       1.204639     -1.827209      0.353892
  S       1.670096      0.848649      1.671588
  S      -1.604007      0.122510     -0.389352
  S       0.906364      1.412316     -1.698430
  C      -2.243160      1.006520     -1.867728
  H      -1.719618      0.667490     -2.770961
  H      -3.319001      0.796853     -1.961651
  H      -2.091168      2.089434     -1.767194
  C       0.614661     -2.741580     -1.125168
  H       0.931202     -3.794121     -1.043039
  H      -0.480742     -2.679109     -1.177535
  H       1.037853     -2.307950     -2.040211
  C       1.047409      2.560939      1.896042
  H      -0.045593      2.557942      1.999265
  H       1.498323      2.987760      2.807049
  H       1.315863      3.180121      1.028409
  C       2.741698      1.509188     -1.794929
  H       3.160981      0.537584     -2.047594
  H       3.005335      2.218670     -2.580416
  H       3.154942      1.823670     -0.832607
21
Coordinates from ORCA-job Rubredoxin_minus1_doublet_sextet_doublet_min E -3015.293793813434
  Fe      0.532864      0.174541     -0.027211
  S       1.266919     -1.807344      0.316203
  S       1.668395      0.872870      1.664114
  S      -1.587999      0.260189     -0.314680
  S       0.925818      1.314730     -1.770988
  C      -2.245430      1.056626     -1.834568
  H      -1.826222      0.576792     -2.738227
  H      -3.341872      0.949087     -1.834568
  H      -1.985303      2.130894     -1.857384
  C       0.658087     -2.738503     -1.150649
  H       1.011726     -3.784111     -1.086558
  H      -0.440163     -2.716459     -1.173260
  H       1.038289     -2.285266     -2.080531
  C       0.976099      2.556988      1.935372
  H      -0.118706      2.510104      2.022016
  H       1.395434      2.972174      2.867251
  H       1.231673      3.218079      1.093619
  C       2.759878      1.448416     -1.837528
  H       3.206604      0.450611     -1.959282
  H       3.035931      2.083289     -2.699931
  H       3.140341      1.893910     -0.897358
21
Coordinates from ORCA-job Rubredoxin_minus1_doublet_sextet_doublet_min E -3015.294515277813
  Fe      0.516718      0.134509     -0.020813
  S       1.372353     -1.807890      0.271158
  S       1.547314      0.861797      1.723824
  S      -1.596439      0.230615     -0.317849
  S       0.919377      1.251888     -1.780913
  C      -2.263419      1.162624     -1.752681
  H      -1.848685      0.770736     -2.700290
  H      -3.359881      1.054030     -1.761417
  H      -2.008178      2.236393     -1.678144
  C       0.755898     -2.762552     -1.177165
  H       1.163298     -3.789299     -1.133205
  H      -0.342206     -2.802102     -1.166271
  H       1.078466     -2.286185     -2.117374
  C       0.907253      2.581114      1.881587
  H      -0.191774      2.576691      1.888863
  H       1.274133      3.019979      2.824709
  H       1.248362      3.201608      1.039236
  C       2.753092      1.357982     -1.838711
  H       3.181991      0.348229     -1.916582
  H       3.051936      1.963016     -2.716883
  H       3.142756      1.834431     -0.915229
21
Coordinates from ORCA-job Rubredoxin_minus1_doublet_sextet_doublet_min E -3015.294959012952
  Fe      0.496118      0.162489      0.012707
  S       1.425325     -1.757670      0.230469
  S       1.475795      0.854275      1.800107
  S      -1.613978      0.298543     -0.260771
  S       0.910898      1.287060     -1.744881
  C      -2.282100      1.122806     -1.758086
  H      -1.902619      0.638834     -2.671295
  H      -3.380406      1.051890     -1.739472
  H      -1.991156      2.184518     -1.784326
  C       0.788343     -2.684605     -1.223299
  H       1.217127     -3.700206     -1.214839
  H      -0.307701     -2.752397     -1.187057
  H       1.075243     -2.178982     -2.156037
  C       0.908574      2.599023      1.913961
  H      -0.187488      2.642665      1.861778
  H       1.245931      3.025977      2.872707
  H       1.323177      3.197527      1.090153
  C       2.744278      1.284753     -1.837223
  H       3.113414      0.252790     -1.888587
  H       3.062385      1.844387     -2.734386
  H       3.181205      1.763939     -0.945774
21
Coordinates from ORCA-job Rubredoxin_minus1_doublet_sextet_doublet_min E -3015.295151579216
  Fe      0.486143      0.152363     -0.005578
  S       1.418995     -1.776672      0.236260
  S       1.476077      0.860908      1.785221
  S      -1.632029      0.283266     -0.266900
  S       0.918298      1.258456     -1.790326
  C      -2.285706      1.167555     -1.734367
  H      -1.898796      0.723408     -2.659746
  H      -3.383418      1.096128     -1.730235
  H      -1.994423      2.225198     -1.715209
  C       0.810236     -2.718734     -1.214518
  H       1.220690     -3.738626     -1.168029
  H      -0.287239     -2.768950     -1.212769
  H       1.135403     -2.240628     -2.146976
  C       0.886000      2.593276      1.905936
  H      -0.211181      2.622250      1.879985
  H       1.241068      3.023356      2.856232
  H       1.273180      3.195513      1.072564
  C       2.750596      1.288533     -1.852609
  H       3.144094      0.263716     -1.869487
  H       3.072548      1.828272     -2.759137
  H       3.161828      1.799024     -0.974461
21
Coordinates from ORCA-job Rubredoxin_minus1_doublet_sextet_doublet_min E -3015.295239668565
  Fe      0.490228      0.149982     -0.008944
  S       1.438151     -1.766041      0.243938
  S       1.476036      0.863641      1.774563
  S      -1.625084      0.299889     -0.254615
  S       0.918375      1.217874     -1.812817
  C      -2.285506      1.200036     -1.711247
  H      -1.922813      0.747862     -2.643353
  H      -3.384411      1.150395     -1.685538
  H      -1.969591      2.251336     -1.695080
  C       0.841062     -2.699915     -1.218031
  H       1.248593     -3.721939     -1.170798
  H      -0.256522     -2.745047     -1.223665
  H       1.176790     -2.218378     -2.145688
  C       0.850551      2.583792      1.900188
  H      -0.247010      2.592232      1.871205
  H       1.195831      3.014149      2.854236
  H       1.228989      3.195566      1.069613
  C       2.752415      1.249144     -1.866457
  H       3.150969      0.225359     -1.844155
  H       3.073157      1.753634     -2.793685
  H       3.152154      1.794044     -1.003819
21
Coordinates from ORCA-job Rubredoxin_minus1_doublet_sextet_doublet_min E -3015.295279471155
  Fe      0.489406      0.154508     -0.005960
  S       1.438954     -1.763648      0.239457
  S       1.475647      0.858043      1.782158
  S      -1.627117      0.304213     -0.250013
  S       0.915650      1.230915     -1.807381
  C      -2.283749      1.179421     -1.724512
  H      -1.925266      0.703949     -2.648627
  H      -3.383315      1.138556     -1.695462
  H      -1.958317      2.229535     -1.729406
  C       0.828462     -2.696338     -1.218646
  H       1.220084     -3.725560     -1.165645
  H      -0.269613     -2.723127     -1.223717
  H       1.172257     -2.224679     -2.149659
  C       0.864247      2.584016      1.906987
  H      -0.233584      2.601786      1.883765
  H       1.218235      3.013595      2.858612
  H       1.243340      3.190673      1.072596
  C       2.750187      1.263814     -1.861522
  H       3.149872      0.240366     -1.859000
  H       3.067827      1.783562     -2.781072
  H       3.149158      1.794016     -0.987104
21
Coordinates from ORCA-job Rubredoxin_minus1_doublet_sextet_doublet_min E -3015.295295427486
  Fe      0.488913      0.155786     -0.005294
  S       1.446517     -1.761439      0.236394
  S       1.470009      0.854319      1.788509
  S      -1.629040      0.303225     -0.248687
  S       0.912823      1.234694     -1.808630
  C      -2.282148      1.173835     -1.728391
  H      -1.930584      0.686687     -2.649642
  H      -3.381954      1.144303     -1.695615
  H      -1.944898      2.220590     -1.741405
  C       0.827792     -2.694644     -1.218529
  H       1.203758     -3.729573     -1.157610
  H      -0.270400     -2.704150     -1.226401
  H       1.181777     -2.234100     -2.151602
  C       0.866113      2.583613      1.910366
  H      -0.231758      2.606102      1.892430
  H       1.226758      3.015013      2.858756
  H       1.243729      3.185373      1.071803
  C       2.747862      1.267930     -1.861959
  H       3.147975      0.245484     -1.872499
  H       3.063312      1.796813     -2.775996
  H       3.145810      1.787755     -0.980146
21
Coordinates from ORCA-job Rubredoxin_minus1_doublet_sextet_doublet_min E -3015.295299511572
  Fe      0.489917      0.156108     -0.005353
  S       1.450762     -1.760680      0.235930
  S       1.467352      0.853513      1.790804
  S      -1.628689      0.302696     -0.249255
  S       0.911822      1.234350     -1.810491
  C      -2.280833      1.174196     -1.729177
  H      -1.936061      0.681652     -2.649918
  H      -3.380584      1.153046     -1.692427
  H      -1.935495      2.218090     -1.745913
  C       0.829415     -2.694500     -1.217929
  H       1.199690     -3.731109     -1.154446
  H      -0.268750     -2.697850     -1.226740
  H       1.186915     -2.238039     -2.151528
  C       0.863870      2.583318      1.912881
  H      -0.234018      2.605678      1.898540
  H       1.227542      3.016202      2.859345
  H       1.238666      3.183804      1.072262
  C       2.747161      1.267748     -1.864391
  H       3.147109      0.245515     -1.879412
  H       3.061621      1.800028     -2.776642
  H       3.144953      1.783852     -0.980289
21
Coordinates from ORCA-job Rubredoxin_minus1_doublet_sextet_doublet_min E -3015.295302201969
  Fe      0.491442      0.156576     -0.005391
  S       1.453497     -1.760367      0.236593
  S       1.464949      0.853023      1.792650
  S      -1.627747      0.302862     -0.250450
  S       0.911263      1.233212     -1.812293
  C      -2.279644      1.175102     -1.730152
  H      -1.943982      0.676295     -2.650535
  H      -3.379234      1.163866     -1.687758
  H      -1.925122      2.215530     -1.752016
  C       0.831259     -2.694362     -1.217179
  H       1.198797     -3.731630     -1.153101
  H      -0.266880     -2.694748     -1.226290
  H       1.190374     -2.239476     -2.150730
  C       0.861136      2.582990      1.916065
  H      -0.236778      2.604491      1.905423
  H       1.227587      3.017169      2.860754
  H       1.232680      3.182856      1.073673
  C       2.746893      1.267006     -1.867426
  H       3.146494      0.244699     -1.884830
  H       3.060609      1.801487     -2.778798
  H       3.144769      1.781033     -0.982358
21
Coordinates from ORCA-job Rubredoxin_minus1_doublet_sextet_doublet_min E -3015.295303245402
  Fe      0.492381      0.157118     -0.005503
  S       1.452891     -1.760667      0.237607
  S       1.464581      0.852793      1.792991
  S      -1.627118      0.303303     -0.251475
  S       0.911490      1.233131     -1.812698
  C      -2.279290      1.174947     -1.731275
  H      -1.948217      0.672954     -2.651462
  H      -3.378792      1.168076     -1.685869
  H      -1.920906      2.213871     -1.756323
  C       0.831166     -2.694455     -1.216550
  H       1.199713     -3.731359     -1.153469
  H      -0.266982     -2.695868     -1.225139
  H       1.189466     -2.238522     -2.149841
  C       0.860583      2.582657      1.917870
  H      -0.237357      2.603676      1.908741
  H       1.228122      3.016879      2.862085
  H       1.230756      3.182764      1.075065
  C       2.747193      1.267464     -1.868724
  H       3.146699      0.245029     -1.885688
  H       3.060717      1.801949     -2.780324
  H       3.145270      1.781875     -0.984170
