21
Coordinates from ORCA-job Rubredoxin_minus1_doublet_sextet_sextet_min E -3015.194494014701
  Fe      0.605036      0.063883     -0.216844
  S       1.173998     -2.065766      0.206381
  S       1.807018      0.901254      1.542614
  S      -1.505391     -0.338044     -0.802687
  S       1.024275      1.635844     -1.762702
  C      -2.181416      0.901271     -1.939798
  H      -1.485234      1.133361     -2.658451
  H      -3.071094      0.576022     -2.440543
  H      -2.420118      1.774124     -1.448695
  C       0.279116     -3.098633     -0.953258
  H       0.436371     -4.106648     -0.695699
  H      -0.797787     -2.896649     -0.957110
  H       0.630820     -2.945209     -1.928884
  C       1.238917      2.590258      1.729808
  H       0.239438      2.574885      2.128304
  H       1.880754      3.144055      2.394518
  H       1.230984      3.110903      0.789753
  C       2.779990      1.993962     -1.611803
  H       3.253224      1.400832     -2.107028
  H       2.980404      2.835320     -1.921922
  H       3.203059      1.952588     -0.710104
21
Coordinates from ORCA-job Rubredoxin_minus1_doublet_sextet_sextet_min E -3015.260659755000
  Fe      0.595980      0.061498     -0.212601
  S       1.173613     -2.074078      0.206329
  S       1.780310      0.903619      1.561488
  S      -1.528201     -0.323409     -0.787580
  S       1.037144      1.622151     -1.775376
  C      -2.199941      0.925258     -1.921966
  H      -1.485085      1.157021     -2.668703
  H      -3.105554      0.592048     -2.416557
  H      -2.435897      1.824909     -1.411509
  C       0.294894     -3.128311     -0.960258
  H       0.464142     -4.153726     -0.691620
  H      -0.785154     -2.933455     -0.967798
  H       0.657010     -2.971844     -1.955467
  C       1.212698      2.603184      1.744094
  H       0.200277      2.598270      2.136302
  H       1.857300      3.156737      2.423097
  H       1.216126      3.125734      0.792016
  C       2.799802      1.983241     -1.630780
  H       3.322316      1.317548     -2.171489
  H       3.011816      2.905999     -1.982227
  H       3.218769      1.945220     -0.673544
21
Coordinates from ORCA-job Rubredoxin_minus1_doublet_sextet_sextet_min E -3015.282365833465
  Fe      0.572027      0.046466     -0.204226
  S       1.158348     -2.097768      0.224089
  S       1.708492      0.919285      1.595119
  S      -1.578927     -0.294745     -0.758851
  S       1.079265      1.560275     -1.813437
  C      -2.245378      1.000628     -1.851214
  H      -1.520978      1.246637     -2.628647
  H      -3.174459      0.665662     -2.332416
  H      -2.467627      1.912747     -1.294102
  C       0.362409     -3.177265     -0.999716
  H       0.532257     -4.221575     -0.713353
  H      -0.718829     -2.987544     -1.062461
  H       0.786177     -3.013816     -1.995165
  C       1.152323      2.643228      1.729747
  H       0.120098      2.673810      2.100551
  H       1.796230      3.200944      2.425143
  H       1.186206      3.143511      0.751537
  C       2.850923      1.923242     -1.656039
  H       3.414337      1.196153     -2.184360
  H       3.073167      2.882339     -2.064074
  H       3.216303      1.915402     -0.632276
21
Coordinates from ORCA-job Rubredoxin_minus1_doublet_sextet_sextet_min E -3015.288652633109
  Fe      0.549270      0.013692     -0.206448
  S       1.134340     -2.136623      0.250486
  S       1.620504      0.946607      1.610653
  S      -1.627005     -0.277941     -0.744613
  S       1.142533      1.445911     -1.879850
  C      -2.291531      1.106155     -1.730020
  H      -1.572601      1.404125     -2.510269
  H      -3.233053      0.794348     -2.210086
  H      -2.498701      1.984159     -1.096107
  C       0.455481     -3.217395     -1.053069
  H       0.590359     -4.269322     -0.751022
  H      -0.613249     -3.012073     -1.211680
  H       0.977428     -3.055451     -2.009796
  C       1.064474      2.684495      1.666482
  H       0.021913      2.744981      2.013097
  H       1.699083      3.259361      2.360493
  H       1.123142      3.139503      0.664272
  C       2.909520      1.835345     -1.664726
  H       3.527329      1.056405     -2.124769
  H       3.142788      2.797017     -2.141682
  H       3.180340      1.894318     -0.595494
21
Coordinates from ORCA-job Rubredoxin_minus1_doublet_sextet_sextet_min E -3015.291407640509
  Fe      0.536128     -0.016836     -0.209191
  S       1.112313     -2.171865      0.276580
  S       1.544723      0.991136      1.609020
  S      -1.662489     -0.255881     -0.728444
  S       1.207028      1.314659     -1.950911
  C      -2.312083      1.217657     -1.591288
  H      -1.598690      1.567232     -2.357929
  H      -3.263916      0.948117     -2.076103
  H      -2.496840      2.045082     -0.883437
  C       0.553027     -3.232115     -1.104193
  H       0.645375     -4.289229     -0.803158
  H      -0.493179     -3.007042     -1.356268
  H       1.168369     -3.065660     -2.004094
  C       0.942321      2.718569      1.601403
  H      -0.104128      2.771023      1.938520
  H       1.559527      3.325651      2.282823
  H       0.998908      3.134741      0.582807
  C       2.967436      1.722777     -1.687847
  H       3.618379      0.907786     -2.074066
  H       3.217046      2.665670     -2.225080
  H       3.163109      1.846141     -0.603295
21
Coordinates from ORCA-job Rubredoxin_minus1_doublet_sextet_sextet_min E -3015.293931878069
  Fe      0.528544     -0.058752     -0.194695
  S       1.105620     -2.222498      0.290557
  S       1.466592      1.046639      1.608779
  S      -1.699563     -0.225524     -0.669771
  S       1.267191      1.144063     -2.017966
  C      -2.294666      1.327077     -1.433485
  H      -1.576191      1.696261     -2.184345
  H      -3.259839      1.117223     -1.919301
  H      -2.439991      2.112643     -0.672471
  C       0.643981     -3.230120     -1.167805
  H       0.713304     -4.296466     -0.900234
  H      -0.383251     -2.991003     -1.475720
  H       1.320716     -3.032057     -2.014286
  C       0.801699      2.751023      1.514827
  H      -0.251174      2.784875      1.832926
  H       1.388417      3.401988      2.180661
  H       0.864575      3.119420      0.479823
  C       3.010056      1.603537     -1.702021
  H       3.700465      0.766959     -1.988936
  H       3.270238      2.508841     -2.310285
  H       3.125641      1.813487     -0.620402
21
Coordinates from ORCA-job Rubredoxin_minus1_doublet_sextet_sextet_min E -3015.296542921887
  Fe      0.522812     -0.094395     -0.144874
  S       1.129665     -2.267873      0.296326
  S       1.365557      1.137113      1.625155
  S      -1.738086     -0.178473     -0.550249
  S       1.308579      0.952491     -2.060388
  C      -2.237422      1.441941     -1.244662
  H      -1.503825      1.794337     -1.984069
  H      -3.217463      1.311348     -1.725985
  H      -2.325582      2.198637     -0.450644
  C       0.756666     -3.176057     -1.252339
  H       0.827516     -4.255576     -1.055404
  H      -0.258937     -2.930333     -1.588849
  H       1.471111     -2.909842     -2.044078
  C       0.599327      2.789472      1.420887
  H      -0.459828      2.776544      1.716235
  H       1.133331      3.505829      2.061493
  H       0.667933      3.101287      0.369643
  C       3.051814      1.416654     -1.733683
  H       3.740764      0.554296     -1.936778
  H       3.335491      2.263954     -2.408520
  H       3.132942      1.706263     -0.673367
21
Coordinates from ORCA-job Rubredoxin_minus1_doublet_sextet_sextet_min E -3015.298240459665
  Fe      0.520742     -0.138210     -0.100185
  S       1.137077     -2.319720      0.301635
  S       1.307354      1.202745      1.611728
  S      -1.762370     -0.132887     -0.435710
  S       1.330793      0.749102     -2.094244
  C      -2.152045      1.533704     -1.092182
  H      -1.409462      1.838754     -1.839510
  H      -3.148843      1.493180     -1.553562
  H      -2.163242      2.277331     -0.284645
  C       0.833878     -3.124043     -1.317302
  H       0.915015     -4.212516     -1.191121
  H      -0.173151     -2.874085     -1.674440
  H       1.570724     -2.790548     -2.058578
  C       0.446524      2.792690      1.319540
  H      -0.609134      2.729699      1.618161
  H       0.937715      3.571880      1.919133
  H       0.500732      3.054381      0.254750
  C       3.045663      1.291793     -1.736375
  H       3.753773      0.439174     -1.813412
  H       3.341902      2.058590     -2.479507
  H       3.078719      1.696599     -0.718323
21
Coordinates from ORCA-job Rubredoxin_minus1_doublet_sextet_sextet_min E -3015.298854879285
  Fe      0.500295     -0.131756     -0.068991
  S       1.065200     -2.323180      0.336780
  S       1.360715      1.223638      1.590827
  S      -1.789179     -0.062679     -0.343542
  S       1.285747      0.670919     -2.105673
  C      -2.125612      1.562074     -1.120483
  H      -1.373123      1.783418     -1.887433
  H      -3.123333      1.528014     -1.581250
  H      -2.110354      2.363567     -0.371010
  C       0.885808     -3.077296     -1.322448
  H       0.989184     -4.167665     -1.228336
  H      -0.102008     -2.842168     -1.739085
  H       1.657365     -2.696053     -2.003026
  C       0.422838      2.780301      1.377683
  H      -0.604459      2.670488      1.751276
  H       0.923952      3.575579      1.948006
  H       0.389530      3.058290      0.315910
  C       3.001138      1.223544     -1.774961
  H       3.696844      0.370614     -1.809156
  H       3.300497      1.946310     -2.548101
  H       3.051320      1.681656     -0.781137
21
Coordinates from ORCA-job Rubredoxin_minus1_doublet_sextet_sextet_min E -3015.299190943013
  Fe      0.528208     -0.121465     -0.105371
  S       1.052027     -2.307157      0.352212
  S       1.423047      1.246987      1.518796
  S      -1.756734     -0.039333     -0.383409
  S       1.324036      0.605825     -2.159714
  C      -2.095468      1.599505     -1.126234
  H      -1.317997      1.853111     -1.859913
  H      -3.075224      1.568705     -1.626383
  H      -2.121463      2.382130     -0.355299
  C       0.864875     -3.096530     -1.287925
  H       1.025849     -4.180217     -1.181815
  H      -0.143198     -2.918468     -1.685017
  H       1.595322     -2.684471     -1.996865
  C       0.386354      2.749551      1.414495
  H      -0.621221      2.550473      1.805437
  H       0.849224      3.547142      2.014902
  H       0.304706      3.089016      0.372704
  C       3.010578      1.228987     -1.818807
  H       3.723764      0.400341     -1.785197
  H       3.310155      1.914398     -2.618236
  H       3.035524      1.749086     -0.852511
21
Coordinates from ORCA-job Rubredoxin_minus1_doublet_sextet_sextet_min E -3015.299492244926
  Fe      0.557508     -0.074991     -0.098536
  S       1.072769     -2.257513      0.363878
  S       1.487362      1.299448      1.494808
  S      -1.730505      0.010278     -0.331904
  S       1.323792      0.595508     -2.179277
  C      -2.070874      1.584901     -1.200255
  H      -1.287922      1.782634     -1.947725
  H      -3.047297      1.514968     -1.704186
  H      -2.104665      2.426454     -0.491875
  C       0.839845     -3.058689     -1.264316
  H       1.074683     -4.131035     -1.172925
  H      -0.198757     -2.945181     -1.603258
  H       1.497705     -2.598211     -2.014569
  C       0.355203      2.734777      1.528437
  H      -0.628234      2.437984      1.919495
  H       0.778149      3.513982      2.181192
  H       0.225828      3.153792      0.520737
  C       3.026494      1.195462     -1.884971
  H       3.721370      0.353657     -1.832363
  H       3.327740      1.849750     -2.710156
  H       3.082168      1.749638     -0.936382
21
Coordinates from ORCA-job Rubredoxin_minus1_doublet_sextet_sextet_min E -3015.299771818849
  Fe      0.594787     -0.046076     -0.111605
  S       1.108147     -2.222742      0.365611
  S       1.521864      1.345777      1.462289
  S      -1.694470      0.037250     -0.323212
  S       1.358707      0.554615     -2.211847
  C      -2.036566      1.589791     -1.229123
  H      -1.238617      1.784553     -1.962284
  H      -2.999730      1.496328     -1.754109
  H      -2.099086      2.444770     -0.537455
  C       0.801256     -3.050259     -1.237208
  H       1.115353     -4.103434     -1.165080
  H      -0.267267     -3.010462     -1.490826
  H       1.361668     -2.548317     -2.038728
  C       0.314859      2.713780      1.593555
  H      -0.658462      2.333904      1.933730
  H       0.684284      3.454727      2.319358
  H       0.179646      3.213985      0.624403
  C       3.052392      1.189817     -1.940982
  H       3.756516      0.357384     -1.820020
  H       3.358059      1.792125     -2.808894
  H       3.089025      1.810099     -1.031722
21
Coordinates from ORCA-job Rubredoxin_minus1_doublet_sextet_sextet_min E -3015.299922994375
  Fe      0.607399     -0.013309     -0.132367
  S       1.130574     -2.180145      0.362260
  S       1.515318      1.388214      1.437227
  S      -1.681050      0.047879     -0.333078
  S       1.375750      0.536269     -2.240902
  C      -2.040315      1.612201     -1.211375
  H      -1.230897      1.844022     -1.919375
  H      -2.987384      1.507364     -1.761786
  H      -2.141138      2.448273     -0.502018
  C       0.811410     -3.032956     -1.224194
  H       1.195524     -4.062482     -1.165345
  H      -0.267942     -3.063414     -1.430828
  H       1.303416     -2.496616     -2.047676
  C       0.269523      2.714273      1.624290
  H      -0.715792      2.283584      1.846639
  H       0.569067      3.378717      2.449097
  H       0.190598      3.314234      0.706824
  C       3.085396      1.135917     -1.992194
  H       3.767670      0.288895     -1.823556
  H       3.412602      1.686943     -2.889684
  H       3.132635      1.799752     -1.116111
21
Coordinates from ORCA-job Rubredoxin_minus1_doublet_sextet_sextet_min E -3015.299972799631
  Fe      0.622054      0.001597     -0.150962
  S       1.133459     -2.160648      0.371404
  S       1.542880      1.409672      1.402583
  S      -1.665717      0.074854     -0.337247
  S       1.388443      0.511719     -2.268108
  C      -2.015321      1.621421     -1.251463
  H      -1.210031      1.827617     -1.970957
  H      -2.967403      1.512427     -1.792078
  H      -2.101895      2.474989     -0.562265
  C       0.791104     -3.042136     -1.194171
  H       1.173501     -4.071191     -1.121357
  H      -0.291111     -3.073290     -1.384417
  H       1.274483     -2.521993     -2.032789
  C       0.260598      2.684808      1.675558
  H      -0.708069      2.212556      1.886429
  H       0.552610      3.312867      2.530698
  H       0.151594      3.328762      0.791126
  C       3.081254      1.159371     -2.024677
  H       3.780737      0.335864     -1.810076
  H       3.408618      1.676767     -2.942099
  H       3.100579      1.861581     -1.179283
21
Coordinates from ORCA-job Rubredoxin_minus1_doublet_sextet_sextet_min E -3015.300017957050
  Fe      0.619125      0.009328     -0.166430
  S       1.133416     -2.148574      0.372256
  S       1.539534      1.417921      1.385895
  S      -1.667816      0.083031     -0.344662
  S       1.384853      0.512614     -2.284112
  C      -2.013450      1.634982     -1.252808
  H      -1.218598      1.832321     -1.985215
  H      -2.975487      1.536944     -1.777551
  H      -2.077939      2.487980     -0.561684
  C       0.802552     -3.047252     -1.186000
  H       1.163593     -4.081966     -1.089998
  H      -0.276298     -3.060348     -1.394860
  H       1.313660     -2.550372     -2.021887
  C       0.249308      2.678196      1.688857
  H      -0.716717      2.195026      1.886667
  H       0.537881      3.285480      2.559702
  H       0.139622      3.341317      0.818614
  C       3.079626      1.155046     -2.038223
  H       3.775109      0.331865     -1.812532
  H       3.413719      1.658950     -2.958951
  H       3.096673      1.865127     -1.201227
21
Coordinates from ORCA-job Rubredoxin_minus1_doublet_sextet_sextet_min E -3015.300047815343
  Fe      0.620424      0.011740     -0.180585
  S       1.147905     -2.141832      0.365081
  S       1.531674      1.418263      1.377360
  S      -1.666060      0.083779     -0.342259
  S       1.383956      0.512475     -2.297909
  C      -2.004275      1.637684     -1.251579
  H      -1.220455      1.819569     -1.999502
  H      -2.977553      1.552045     -1.757654
  H      -2.041809      2.493525     -0.562499
  C       0.802806     -3.055344     -1.181729
  H       1.149156     -4.093892     -1.071903
  H      -0.276011     -3.055558     -1.389743
  H       1.322583     -2.577449     -2.023126
  C       0.242180      2.676746      1.692729
  H      -0.728928      2.192813      1.861178
  H       0.520180      3.258098      2.584311
  H       0.152642      3.361964      0.837569
  C       3.075067      1.162290     -2.042469
  H       3.770261      0.345658     -1.801634
  H       3.416289      1.652819     -2.964964
  H       3.082334      1.882223     -1.214823
21
Coordinates from ORCA-job Rubredoxin_minus1_doublet_sextet_sextet_min E -3015.300059356110
  Fe      0.608811      0.022472     -0.194539
  S       1.136618     -2.126343      0.371691
  S       1.521224      1.432797      1.358574
  S      -1.677201      0.102433     -0.343505
  S       1.372238      0.504585     -2.315142
  C      -2.007032      1.662342     -1.246423
  H      -1.227920      1.837737     -2.001269
  H      -2.986202      1.588149     -1.742972
  H      -2.028287      2.516638     -0.554302
  C       0.833365     -3.049500     -1.178544
  H       1.178086     -4.086941     -1.053045
  H      -0.239535     -3.052396     -1.415159
  H       1.375062     -2.576516     -2.009014
  C       0.222243      2.672970      1.708478
  H      -0.742448      2.176222      1.876454
  H       0.503049      3.240299      2.608145
  H       0.119518      3.372381      0.866602
  C       3.073062      1.130403     -2.061236
  H       3.755276      0.305320     -1.813979
  H       3.422770      1.608448     -2.986866
  H       3.089666      1.856114     -1.238099
21
Coordinates from ORCA-job Rubredoxin_minus1_doublet_sextet_sextet_min E -3015.300070821525
  Fe      0.610117      0.022908     -0.200756
  S       1.142369     -2.124144      0.369367
  S       1.520123      1.428866      1.357882
  S      -1.675568      0.100440     -0.347519
  S       1.374927      0.510062     -2.319106
  C      -2.006758      1.660206     -1.250059
  H      -1.228969      1.835028     -2.006831
  H      -2.987311      1.586666     -1.743924
  H      -2.025588      2.514885     -0.557834
  C       0.828346     -3.053849     -1.174954
  H       1.179006     -4.089339     -1.049396
  H      -0.246770     -3.062561     -1.401771
  H       1.359063     -2.581362     -2.012974
  C       0.224462      2.672142      1.709979
  H      -0.742153      2.177737      1.873818
  H       0.504946      3.235120      2.612543
  H       0.125560      3.375795      0.871154
  C       3.074716      1.137209     -2.060499
  H       3.757032      0.311800     -1.813045
  H       3.425875      1.618308     -2.984975
  H       3.088940      1.861698     -1.235249
21
Coordinates from ORCA-job Rubredoxin_minus1_doublet_sextet_sextet_min E -3015.300078691601
  Fe      0.609376      0.022187     -0.204457
  S       1.145684     -2.123554      0.369366
  S       1.518313      1.425096      1.357939
  S      -1.676384      0.104434     -0.343438
  S       1.374868      0.507487     -2.322531
  C      -2.004154      1.660090     -1.254006
  H      -1.226715      1.828009     -2.012932
  H      -2.986008      1.588027     -1.745428
  H      -2.018449      2.518913     -0.566454
  C       0.827010     -3.054797     -1.173052
  H       1.193017     -4.085704     -1.053622
  H      -0.250291     -3.078263     -1.388873
  H       1.340176     -2.573669     -2.017216
  C       0.225983      2.671017      1.712143
  H      -0.742490      2.178544      1.870960
  H       0.505233      3.229299      2.618097
  H       0.130749      3.380278      0.877511
  C       3.072515      1.139041     -2.059953
  H       3.754923      0.314952     -1.807861
  H       3.425564      1.620428     -2.984540
  H       3.083445      1.865801     -1.235803
21
Coordinates from ORCA-job Rubredoxin_minus1_doublet_sextet_sextet_min E -3015.300080844036
  Fe      0.608045      0.023493     -0.207912
  S       1.147189     -2.120956      0.369993
  S       1.516467      1.426040      1.355713
  S      -1.677759      0.107535     -0.344432
  S       1.374045      0.508649     -2.325711
  C      -2.005084      1.664053     -1.253600
  H      -1.228582      1.831622     -2.013409
  H      -2.987752      1.593736     -1.743632
  H      -2.017313      2.522512     -0.565667
  C       0.830527     -3.054137     -1.171513
  H       1.201611     -4.083265     -1.052593
  H      -0.246992     -3.083134     -1.385824
  H       1.339510     -2.570823     -2.016953
  C       0.223177      2.669440      1.713596
  H      -0.744292      2.175233      1.873355
  H       0.502864      3.227022      2.619871
  H       0.125136      3.380154      0.880431
  C       3.073497      1.134854     -2.062099
  H       3.752999      0.308204     -1.810231
  H       3.428341      1.616509     -2.986056
  H       3.086733      1.860875     -1.237479
21
Coordinates from ORCA-job Rubredoxin_minus1_doublet_sextet_sextet_min E -3015.300082335108
  Fe      0.605368      0.022427     -0.209174
  S       1.145767     -2.121615      0.371566
  S       1.515223      1.423726      1.355767
  S      -1.680556      0.111405     -0.343344
  S       1.371935      0.507634     -2.326811
  C      -2.005963      1.667915     -1.253087
  H      -1.230222      1.833802     -2.013761
  H      -2.989251      1.599248     -1.742095
  H      -2.015923      2.526786     -0.565891
  C       0.834681     -3.054602     -1.171002
  H       1.208984     -4.082600     -1.052701
  H      -0.242427     -3.087430     -1.386929
  H       1.343126     -2.568868     -2.015314
  C       0.223386      2.668127      1.712953
  H      -0.744938      2.175078      1.871219
  H       0.502538      3.224766      2.619985
  H       0.126767      3.379846      0.880412
  C       3.071512      1.132872     -2.062267
  H       3.750071      0.305777     -1.808783
  H       3.427627      1.613715     -2.986129
  H       3.084661      1.859608     -1.238762
21
Coordinates from ORCA-job Rubredoxin_minus1_doublet_sextet_sextet_min E -3015.300082884862
  Fe      0.605693      0.023701     -0.209955
  S       1.148211     -2.119819      0.371617
  S       1.515457      1.425578      1.355034
  S      -1.680388      0.113448     -0.343245
  S       1.371851      0.508531     -2.327845
  C      -2.006141      1.669631     -1.253314
  H      -1.230881      1.835365     -2.014466
  H      -2.989602      1.600763     -1.741984
  H      -2.015887      2.528717     -0.566448
  C       0.835581     -3.053836     -1.169978
  H       1.210960     -4.081501     -1.051979
  H      -0.241849     -3.087876     -1.384043
  H       1.342478     -2.567959     -2.015107
  C       0.221376      2.666728      1.714490
  H      -0.746189      2.171718      1.871347
  H       0.499213      3.221950      2.622805
  H       0.123630      3.380047      0.883429
  C       3.072534      1.130939     -2.064243
  H       3.749817      0.302902     -1.810662
  H       3.429177      1.610549     -2.988282
  H       3.087323      1.858041     -1.241319
