21
Coordinates from ORCA-job D_S_negative_1_doublet_min
  Fe  0.49248494957974      0.15708464816578     -0.00552774978203
  S   1.45369706057641     -1.76045432785736      0.23747460299940
  S   1.46373662308465      0.85266660846703      1.79340897657982
  S   -1.62703908980143      0.30344434979611     -0.25143006845701
  S   0.91141958661379      1.23256062267999     -1.81312547929719
  C   -2.27922709020723      1.17540852882265     -1.73104410766184
  H   -1.94938374032319      0.67276110605508     -2.65130545729471
  H   -3.37869978758838      1.16980976358308     -1.68485445433053
  H   -1.91965371211573      2.21390145226010     -1.75661463743525
  C   0.83179967896948     -2.69428989688232     -1.21661325448791
  H   1.20021033941482     -3.73123384920112     -1.15351394654456
  H   -0.26634728204022     -2.69556070699605     -1.22511335986476
  H   1.19009284549184     -2.23844775361031     -2.14994978485087
  C   0.85994311950844      2.58264016885115      1.91808967831063
  H   -0.23799484583975      2.60372910490844      1.90906388164539
  H   1.22761441247534      3.01700664354352      2.86218498524287
  H   1.23009078438681      3.18255202247839      1.07514215218648
  C   2.74714757092048      1.26689472557470     -1.86911336717922
  H   3.14661403770424      0.24444536263736     -1.88593690148151
  H   3.06068383909837      1.80129468340653     -2.78076680793174
  H   3.14517574009251      1.78140198331423     -0.98460481036446
