21
Coordinates from ORCA-job Rubredoxin_minus1_quartet_sextet
  Fe  0.46427038417591     -0.06082897315219     -0.10065492304947
  S   1.27779722550220     -2.15413447654666      0.16679773945101
  S   1.14981240885773      1.10903587412045      1.71878330004172
  S   -1.71117292442886     -0.36022328211234     -0.64845982241175
  S   1.23827937964600      1.09439923977929     -1.89355459991886
  C   -2.29959113141608      1.23791296568707     -1.31811294788097
  H   -1.65473907989486      1.57439865988365     -2.14161165947245
  H   -3.32620289065505      1.10856939327264     -1.69307877026343
  H   -2.30379202183464      2.01314302730158     -0.53899521591697
  C   0.71915136031009     -3.03506405066950     -1.33750137512487
  H   1.08492755479662     -4.07241384490616     -1.30205493548564
  H   -0.37762415817842     -3.03568884033043     -1.39763968760076
  H   1.11457517171499     -2.54109213639837     -2.23565539338657
  C   0.76875954317802      2.85866393943855      1.33742331780741
  H   -0.29361139311382      3.07215953480872      1.52405309816390
  H   1.37601264262722      3.51157837187723      1.98246849699258
  H   0.98821417015269      3.07376545464704      0.28170012547265
  C   3.00035186658522      1.39133820531734     -1.50042256036585
  H   3.54295597305398      0.43781156020332     -1.44266230942792
  H   3.44494589589936      2.01262776888454     -2.29291510780617
  H   3.09904506302469      1.90165684889323     -0.53205667981659
