21
Coordinates from ORCA-job Rubredoxin_minus1_quartet_sextet E -3015.269012834063
  Fe      0.575385      0.030483     -0.235300
  S       1.160576     -2.088307      0.277365
  S       1.473396      1.207307      1.440638
  S      -1.618377     -0.072281     -0.577163
  S       1.256535      0.873916     -2.140036
  C      -2.068390      1.439301     -1.489377
  H      -1.328291      1.649223     -2.269988
  H      -3.047977      1.293080     -1.955272
  H      -2.123914      2.300577     -0.811345
  C       0.659554     -3.113340     -1.103441
  H       1.045153     -4.132595     -0.956157
  H      -0.417943     -3.134373     -1.174446
  H       1.043614     -2.709989     -2.021197
  C       0.572698      2.645008      1.702902
  H      -0.330722      2.412031      2.049025
  H       1.077617      3.158435      2.417853
  H       0.417536      3.254919      0.820313
  C       2.973967      1.443288     -1.871774
  H       3.642333      0.597940     -1.733110
  H       3.307961      2.008995     -2.742690
  H       3.031652      2.073996     -0.990952
21
Coordinates from ORCA-job Rubredoxin_minus1_quartet_sextet E -3015.288309649822
  Fe      0.587167      0.015227     -0.225919
  S       1.173808     -2.107902      0.274184
  S       1.475818      1.191844      1.461695
  S      -1.612476     -0.092086     -0.568288
  S       1.281140      0.868243     -2.131399
  C      -2.094200      1.432649     -1.453917
  H      -1.362485      1.668918     -2.237724
  H      -3.081924      1.281435     -1.914139
  H      -2.155109      2.283992     -0.760748
  C       0.666921     -3.124345     -1.136383
  H       1.045265     -4.149136     -1.001369
  H      -0.426807     -3.146246     -1.215141
  H       1.065856     -2.709841     -2.068610
  C       0.559342      2.690673      1.686744
  H      -0.441594      2.468891      2.029950
  H       1.072402      3.268488      2.448525
  H       0.455926      3.291964      0.770777
  C       3.006759      1.417041     -1.868507
  H       3.670422      0.553271     -1.736406
  H       3.343452      1.989547     -2.745173
  H       3.072682      2.044987     -0.972301
21
Coordinates from ORCA-job Rubredoxin_minus1_quartet_sextet E -3015.292898028410
  Fe      0.597171     -0.002786     -0.194531
  S       1.221487     -2.127985      0.237776
  S       1.460252      1.137848      1.534406
  S      -1.599064     -0.153043     -0.554178
  S       1.277547      0.942495     -2.064932
  C      -2.117401      1.353464     -1.457599
  H      -1.394041      1.597138     -2.247233
  H      -3.105554      1.177340     -1.911102
  H      -2.191899      2.211905     -0.773795
  C       0.619954     -3.120469     -1.168354
  H       1.001964     -4.149027     -1.078505
  H      -0.480479     -3.143731     -1.181993
  H       0.964495     -2.688426     -2.120238
  C       0.618026      2.728727      1.640749
  H      -0.443422      2.590754      1.904550
  H       1.104054      3.322920      2.432349
  H       0.648878      3.299909      0.697314
  C       3.013193      1.460508     -1.802851
  H       3.671253      0.583060     -1.718983
  H       3.340372      2.070817     -2.659877
  H       3.095578      2.046198     -0.877123
21
Coordinates from ORCA-job Rubredoxin_minus1_quartet_sextet E -3015.295702214692
  Fe      0.577301     -0.030227     -0.162305
  S       1.228323     -2.155279      0.216988
  S       1.408774      1.076752      1.606515
  S      -1.612387     -0.217973     -0.558158
  S       1.261673      0.999870     -1.991279
  C      -2.163843      1.287900     -1.445678
  H      -1.447075      1.555976     -2.233365
  H      -3.148818      1.095330     -1.898802
  H      -2.254833      2.137340     -0.753061
  C       0.598430     -3.117454     -1.205671
  H       0.978985     -4.148646     -1.144225
  H      -0.501782     -3.138676     -1.202411
  H       0.930330     -2.666310     -2.153098
  C       0.710761      2.758933      1.553169
  H      -0.385732      2.736797      1.711862
  H       1.170729      3.362913      2.358906
  H       0.901047      3.259837      0.590123
  C       2.996844      1.507169     -1.705479
  H       3.654661      0.627206     -1.655380
  H       3.322875      2.151922     -2.536923
  H       3.076100      2.054236     -0.755877
21
Coordinates from ORCA-job Rubredoxin_minus1_quartet_sextet E -3015.297591870837
  Fe      0.548141     -0.047545     -0.138802
  S       1.234056     -2.167174      0.200732
  S       1.331034      1.038034      1.668651
  S      -1.630967     -0.282263     -0.589232
  S       1.247232      1.063907     -1.923087
  C      -2.222223      1.237027     -1.426220
  H      -1.514256      1.548749     -2.205980
  H      -3.202515      1.032639     -1.883001
  H      -2.333107      2.061444     -0.707131
  C       0.593916     -3.106015     -1.235782
  H       0.967606     -4.140272     -1.186788
  H      -0.505293     -3.117502     -1.230470
  H       0.929828     -2.645332     -2.175626
  C       0.794483      2.777995      1.460516
  H      -0.306004      2.861500      1.526865
  H       1.241585      3.396313      2.260083
  H       1.112558      3.180908      0.487077
  C       2.987711      1.538753     -1.612535
  H       3.634795      0.650453     -1.608365
  H       3.319320      2.222024     -2.409455
  H       3.074465      2.033972     -0.635602
21
Coordinates from ORCA-job Rubredoxin_minus1_quartet_sextet E -3015.297987563284
  Fe      0.529481     -0.040271     -0.132074
  S       1.257058     -2.149794      0.187627
  S       1.252496      1.043119      1.706590
  S      -1.636063     -0.325494     -0.644112
  S       1.249341      1.134234     -1.879442
  C      -2.274201      1.219237     -1.393069
  H      -1.584761      1.587585     -2.165062
  H      -3.254905      1.013224     -1.847230
  H      -2.395282      2.003319     -0.631915
  C       0.617243     -3.081991     -1.253613
  H       0.966115     -4.123973     -1.190341
  H      -0.480942     -3.064745     -1.264959
  H       0.980664     -2.635656     -2.188874
  C       0.802455      2.798496      1.405002
  H      -0.289141      2.932743      1.439512
  H       1.257907      3.433148      2.181776
  H       1.163450      3.125437      0.419643
  C       3.014723      1.510374     -1.573739
  H       3.620828      0.598198     -1.659230
  H       3.358827      2.243022     -2.319065
  H       3.147072      1.917403     -0.561578
21
Coordinates from ORCA-job Rubredoxin_minus1_quartet_sextet E -3015.297969918479
  Fe      0.509303     -0.064559     -0.127133
  S       1.250514     -2.174506      0.173299
  S       1.232534      1.020031      1.716813
  S      -1.659642     -0.357482     -0.647439
  S       1.234000      1.137265     -1.866958
  C      -2.289233      1.180488     -1.413563
  H      -1.618420      1.514182     -2.217554
  H      -3.287757      0.983534     -1.831085
  H      -2.370097      1.986186     -0.669860
  C       0.593628     -3.099908     -1.263102
  H       0.901149     -4.153354     -1.179983
  H      -0.502360     -3.037486     -1.288948
  H       0.987409     -2.680668     -2.198311
  C       0.898979      2.786760      1.349215
  H      -0.175912      2.994166      1.399598
  H       1.413317      3.416124      2.088507
  H       1.256630      3.036663      0.340879
  C       2.965646      1.593777     -1.488614
  H       3.616992      0.712450     -1.566210
  H       3.302254      2.354963     -2.208093
  H       3.043429      1.988986     -0.465608
21
Coordinates from ORCA-job Rubredoxin_minus1_quartet_sextet E -3015.297486250979
  Fe      0.506741     -0.035902     -0.111841
  S       1.281309     -2.140597      0.166145
  S       1.223802      1.058642      1.737122
  S      -1.666361     -0.351503     -0.634880
  S       1.226411      1.195149     -1.850008
  C      -2.293181      1.177859     -1.416263
  H      -1.648520      1.475602     -2.255295
  H      -3.310533      0.990973     -1.790509
  H      -2.329629      2.004666     -0.692663
  C       0.627908     -3.062831     -1.272107
  H       0.898805     -4.124185     -1.166863
  H      -0.463899     -2.962351     -1.324785
  H       1.057920     -2.669539     -2.202415
  C       0.836682      2.814059      1.387898
  H      -0.228280      3.003522      1.533836
  H       1.405957      3.450807      2.074238
  H       1.093734      3.051429      0.347203
  C       2.997432      1.517701     -1.521681
  H       3.585580      0.605181     -1.691414
  H       3.353450      2.306277     -2.201043
  H       3.147035      1.832656     -0.478823
21
Coordinates from ORCA-job Rubredoxin_minus1_quartet_sextet E -3015.296035660660
  Fe      0.485356     -0.046580     -0.130032
  S       1.234531     -2.156762      0.197525
  S       1.195755      1.089497      1.704266
  S      -1.692248     -0.339074     -0.673306
  S       1.255085      1.136765     -1.893009
  C      -2.321935      1.246473     -1.332242
  H      -1.688204      1.603023     -2.156038
  H      -3.345439      1.092250     -1.705785
  H      -2.344712      2.018393     -0.550195
  C       0.707804     -3.069450     -1.299995
  H       0.939872     -4.136644     -1.166257
  H      -0.370398     -2.942871     -1.465778
  H       1.240936     -2.691666     -2.183224
  C       0.772787      2.837263      1.345345
  H      -0.289823      3.019334      1.541021
  H       1.369130      3.492606      1.994236
  H       0.976657      3.059281      0.288846
  C       3.021602      1.437007     -1.524729
  H       3.596368      0.507490     -1.642215
  H       3.413917      2.192504     -2.222124
  H       3.145325      1.788775     -0.490458
21
Coordinates from ORCA-job Rubredoxin_minus1_quartet_sextet E -3015.296153725319
  Fe      0.525189     -0.050493     -0.146377
  S       1.275707     -2.162903      0.167928
  S       1.262631      1.086178      1.677263
  S      -1.662106     -0.332045     -0.654140
  S       1.272619      1.120639     -1.927600
  C      -2.266052      1.241913     -1.364676
  H      -1.625941      1.562462     -2.198083
  H      -3.291841      1.092868     -1.734598
  H      -2.276802      2.038225     -0.607250
  C       0.652327     -3.094453     -1.279466
  H       0.903561     -4.158403     -1.154771
  H      -0.436683     -2.981194     -1.368272
  H       1.116012     -2.720062     -2.202775
  C       0.747365      2.820105      1.391964
  H      -0.318084      2.947563      1.632165
  H       1.337749      3.482252      2.042769
  H       0.902807      3.092487      0.338088
  C       3.025658      1.483611     -1.550395
  H       3.625220      0.564292     -1.605199
  H       3.411730      2.207738     -2.284102
  H       3.121299      1.896834     -0.536622
21
Coordinates from ORCA-job Rubredoxin_minus1_quartet_sextet E -3015.296102693757
  Fe      0.499288     -0.051170     -0.116284
  S       1.248169     -2.166402      0.187346
  S       1.254627      1.087421      1.700271
  S      -1.694886     -0.322534     -0.605948
  S       1.237022      1.117932     -1.907009
  C      -2.271627      1.233077     -1.376949
  H      -1.626369      1.510048     -2.222061
  H      -3.300198      1.087975     -1.740656
  H      -2.267656      2.058062     -0.650691
  C       0.676753     -3.074749     -1.295269
  H       0.932331     -4.139126     -1.183040
  H      -0.409948     -2.968244     -1.414936
  H       1.165216     -2.679567     -2.196854
  C       0.771241      2.827378      1.401122
  H      -0.292076      2.976866      1.639748
  H       1.373292      3.484194      2.046773
  H       0.933438      3.090226      0.345726
  C       2.997176      1.464573     -1.547433
  H       3.584733      0.536900     -1.589465
  H       3.387604      2.170254     -2.296738
  H       3.104236      1.894499     -0.541803
21
Coordinates from ORCA-job Rubredoxin_minus1_quartet_sextet E -3015.295868007083
  Fe      0.496698     -0.058356     -0.118274
  S       1.255932     -2.171564      0.179708
  S       1.237313      1.088031      1.702069
  S      -1.696585     -0.335523     -0.621283
  S       1.243164      1.118504     -1.907500
  C      -2.274898      1.235429     -1.359575
  H      -1.629588      1.531336     -2.198238
  H      -3.303098      1.096570     -1.726603
  H      -2.272260      2.044933     -0.616054
  C       0.678804     -3.076345     -1.302528
  H       0.938080     -4.140430     -1.195468
  H      -0.408880     -2.972755     -1.414850
  H       1.160678     -2.676512     -2.205414
  C       0.770110      2.828532      1.379561
  H      -0.293568      2.989684      1.606706
  H       1.371158      3.488854      2.022106
  H       0.945424      3.078170      0.323251
  C       3.000327      1.465311     -1.533730
  H       3.584528      0.534775     -1.549735
  H       3.402169      2.153929     -2.292680
  H       3.096857      1.915040     -0.535619
21
Coordinates from ORCA-job Rubredoxin_minus1_quartet_sextet E -3015.295276615125
  Fe      0.488529     -0.069522     -0.123203
  S       1.257988     -2.179992      0.175627
  S       1.204526      1.095379      1.697964
  S      -1.703120     -0.347391     -0.646364
  S       1.254737      1.101111     -1.917517
  C      -2.280223      1.253627     -1.319433
  H      -1.627561      1.589735     -2.136811
  H      -3.304313      1.128106     -1.702537
  H      -2.287996      2.028472     -0.539871
  C       0.695928     -3.077521     -1.316356
  H       0.979423     -4.136981     -1.225246
  H      -0.394482     -2.998264     -1.422791
  H       1.164318     -2.654438     -2.215737
  C       0.755127      2.833972      1.346533
  H      -0.313077      3.005179      1.545038
  H       1.343441      3.499369      1.996422
  H       0.959958      3.075828      0.293410
  C       3.007604      1.445963     -1.522370
  H       3.580885      0.509707     -1.478299
  H       3.433018      2.090854     -2.306416
  H       3.087655      1.944420     -0.546192
21
Coordinates from ORCA-job Rubredoxin_minus1_quartet_sextet E -3015.295358014709
  Fe      0.489667     -0.068084     -0.123073
  S       1.261237     -2.177219      0.174998
  S       1.201757      1.096314      1.698457
  S      -1.700300     -0.347100     -0.647947
  S       1.255928      1.100644     -1.916661
  C      -2.279595      1.253872     -1.319297
  H      -1.624875      1.593481     -2.133554
  H      -3.301997      1.126529     -1.706246
  H      -2.292272      2.026625     -0.537738
  C       0.694556     -3.075427     -1.315067
  H       0.992188     -4.131627     -1.231635
  H      -0.397817     -3.009623     -1.410049
  H       1.147976     -2.642501     -2.217419
  C       0.752896      2.834797      1.346745
  H      -0.316628      3.004761      1.538153
  H       1.336043      3.499829      2.001787
  H       0.963604      3.079017      0.295356
  C       3.010014      1.442018     -1.523850
  H       3.582422      0.504998     -1.485832
  H       3.433743      2.090589     -2.305726
  H       3.093821      1.935720     -0.545550
21
Coordinates from ORCA-job Rubredoxin_minus1_quartet_sextet E -3015.295571005153
  Fe      0.487784     -0.064318     -0.113587
  S       1.269050     -2.168776      0.175409
  S       1.191547      1.100206      1.706467
  S      -1.698401     -0.345617     -0.639814
  S       1.252098      1.097736     -1.907828
  C      -2.277803      1.250177     -1.323449
  H      -1.621487      1.583588     -2.138962
  H      -3.299487      1.119847     -1.711169
  H      -2.292306      2.027709     -0.546707
  C       0.694474     -3.060742     -1.316281
  H       1.042465     -4.103588     -1.266337
  H      -0.402247     -3.044219     -1.376015
  H       1.097329     -2.587476     -2.222235
  C       0.751275      2.839391      1.347731
  H      -0.319759      3.012768      1.524698
  H       1.327153      3.503877      2.009937
  H       0.973255      3.082613      0.298584
  C       3.010764      1.424388     -1.523242
  H       3.577108      0.483252     -1.500258
  H       3.431673      2.080049     -2.300667
  H       3.107882      1.906751     -0.540425
21
Coordinates from ORCA-job Rubredoxin_minus1_quartet_sextet E -3015.295533190175
  Fe      0.483630     -0.065084     -0.110136
  S       1.268231     -2.168090      0.176481
  S       1.183968      1.102300      1.708608
  S      -1.701484     -0.346643     -0.639015
  S       1.250610      1.093055     -1.905895
  C      -2.280594      1.250651     -1.319456
  H      -1.627286      1.582857     -2.137873
  H      -3.304281      1.122598     -1.702684
  H      -2.289978      2.027931     -0.542394
  C       0.700397     -3.054973     -1.320876
  H       1.056199     -4.095492     -1.277431
  H      -0.396407     -3.046278     -1.380743
  H       1.099746     -2.572643     -2.223566
  C       0.751459      2.842097      1.342966
  H      -0.318913      3.020934      1.518936
  H       1.330016      3.506587      2.002691
  H       0.974668      3.079701      0.292788
  C       3.009426      1.415907     -1.519063
  H       3.572160      0.472783     -1.488834
  H       3.434594      2.065264     -2.299525
  H       3.106203      1.904154     -0.539130
21
Coordinates from ORCA-job Rubredoxin_minus1_quartet_sextet E -3015.295566035482
  Fe      0.468540     -0.064539     -0.094760
  S       1.273133     -2.159446      0.175455
  S       1.154449      1.109567      1.720683
  S      -1.710405     -0.353130     -0.633951
  S       1.241325      1.082841     -1.893190
  C      -2.292010      1.243555     -1.313390
  H      -1.652589      1.565807     -2.146691
  H      -3.323494      1.119380     -1.676652
  H      -2.281807      2.026058     -0.541713
  C       0.718666     -3.028119     -1.337601
  H       1.101245     -4.059889     -1.318711
  H      -0.378332     -3.045680     -1.391345
  H       1.100135     -2.514584     -2.230652
  C       0.758317      2.853248      1.331232
  H      -0.307711      3.056832      1.507683
  H       1.352745      3.513791      1.979847
  H       0.982817      3.067455      0.276323
  C       3.002577      1.385694     -1.502247
  H       3.548860      0.433881     -1.448890
  H       3.443584      2.011767     -2.293130
  H       3.102321      1.893125     -0.532453
21
Coordinates from ORCA-job Rubredoxin_minus1_quartet_sextet E -3015.295580956238
  Fe      0.470981     -0.064535     -0.098537
  S       1.272076     -2.161057      0.174395
  S       1.161237      1.107643      1.717484
  S      -1.708834     -0.352868     -0.636113
  S       1.242527      1.085101     -1.896176
  C      -2.291209      1.243712     -1.315046
  H      -1.649836      1.568703     -2.145800
  H      -3.321278      1.118023     -1.681756
  H      -2.284905      2.025323     -0.542397
  C       0.715830     -3.034297     -1.335336
  H       1.082357     -4.071574     -1.304791
  H      -0.380886     -3.035466     -1.396940
  H       1.111948     -2.534817     -2.230068
  C       0.758768      2.851729      1.334779
  H      -0.307185      3.051796      1.516875
  H       1.354647      3.512122      1.982530
  H       0.978823      3.069696      0.279728
  C       3.002879      1.393346     -1.504930
  H       3.552176      0.443386     -1.450215
  H       3.442622      2.019599     -2.296320
  H       3.099627      1.902050     -0.535515
21
Coordinates from ORCA-job Rubredoxin_minus1_quartet_sextet E -3015.295646043597
  Fe      0.470775     -0.063403     -0.100142
  S       1.273816     -2.159496      0.171630
  S       1.161339      1.106865      1.716922
  S      -1.707954     -0.354668     -0.639271
  S       1.241660      1.088175     -1.896086
  C      -2.292818      1.241320     -1.317191
  H      -1.649985      1.569801     -2.145471
  H      -3.321374      1.113141     -1.687246
  H      -2.291094      2.021863     -0.543412
  C       0.714822     -3.036151     -1.335052
  H       1.073366     -4.076006     -1.298522
  H      -0.381707     -3.029111     -1.399119
  H       1.117022     -2.544345     -2.231376
  C       0.761947      2.852641      1.337507
  H      -0.303097      3.054532      1.522981
  H       1.361289      3.510812      1.984488
  H       0.980329      3.071363      0.282295
  C       3.002176      1.396337     -1.504973
  H       3.550990      0.446325     -1.447275
  H       3.442803      2.019907     -2.297942
  H       3.098060      1.907714     -0.536895
21
Coordinates from ORCA-job Rubredoxin_minus1_quartet_sextet E -3015.295699136022
  Fe      0.469417     -0.061969     -0.100598
  S       1.275917     -2.157212      0.169081
  S       1.159238      1.106908      1.717597
  S      -1.708100     -0.356656     -0.641962
  S       1.239992      1.091931     -1.894855
  C      -2.294765      1.238751     -1.319488
  H      -1.650343      1.569951     -2.145465
  H      -3.321921      1.108615     -1.692694
  H      -2.297110      2.018364     -0.544749
  C       0.714682     -3.036597     -1.335166
  H       1.071670     -4.076893     -1.296526
  H      -0.381868     -3.027970     -1.398436
  H       1.117054     -2.547646     -2.232993
  C       0.765363      2.854400      1.339643
  H      -0.298559      3.059660      1.527113
  H       1.368156      3.510240      1.985878
  H       0.983019      3.072896      0.284257
  C       3.001265      1.396951     -1.504295
  H       3.548423      0.446022     -1.446637
  H       3.442606      2.019589     -2.297553
  H       3.098228      1.908279     -0.536301
21
Coordinates from ORCA-job Rubredoxin_minus1_quartet_sextet E -3015.295701357929
  Fe      0.467605     -0.061301     -0.100758
  S       1.276966     -2.155819      0.167795
  S       1.155970      1.107590      1.718121
  S      -1.709082     -0.358183     -0.644553
  S       1.239136      1.093748     -1.894191
  C      -2.296594      1.237968     -1.319584
  H      -1.651498      1.571505     -2.144095
  H      -3.323177      1.107642     -1.694283
  H      -2.300633      2.015948     -0.543206
  C       0.715913     -3.036391     -1.335821
  H       1.075406     -4.075839     -1.297732
  H      -0.380731     -3.030410     -1.397780
  H       1.115978     -2.546509     -2.234171
  C       0.767081      2.856073      1.339468
  H      -0.296142      3.064478      1.527004
  H       1.371845      3.510566      1.985255
  H       0.985214      3.073606      0.283980
  C       3.000865      1.395477     -1.503052
  H       3.546264      0.443531     -1.445670
  H       3.443246      2.017707     -2.296036
  H       3.098733      1.906229     -0.534841
21
Coordinates from ORCA-job Rubredoxin_minus1_quartet_sextet E -3015.295668912099
  Fe      0.464270     -0.060829     -0.100655
  S       1.277797     -2.154134      0.166798
  S       1.149812      1.109036      1.718783
  S      -1.711173     -0.360223     -0.648460
  S       1.238279      1.094399     -1.893555
  C      -2.299591      1.237913     -1.318113
  H      -1.654739      1.574399     -2.141612
  H      -3.326203      1.108569     -1.693079
  H      -2.303792      2.013143     -0.538995
  C       0.719151     -3.035064     -1.337501
  H       1.084928     -4.072414     -1.302055
  H      -0.377624     -3.035689     -1.397640
  H       1.114575     -2.541092     -2.235655
  C       0.768760      2.858664      1.337423
  H      -0.293611      3.072160      1.524053
  H       1.376013      3.511578      1.982468
  H       0.988214      3.073765      0.281700
  C       3.000352      1.391338     -1.500423
  H       3.542956      0.437812     -1.442662
  H       3.444946      2.012628     -2.292915
  H       3.099045      1.901657     -0.532057
