28

Fe        -2.19414        0.90879        0.48098
Ni         0.55715       -0.07879        0.17646
S         -1.38448       -1.22099        0.53175
S         -0.79196        0.99290       -1.33925
C         -1.33155       -1.91763        2.22494
H         -0.55369       -2.69455        2.23329
C         -0.19023        2.69186       -1.64196
H          0.39120        2.68759       -2.57610
H          0.44352        3.00169       -0.80018
H         -1.04758        3.37264       -1.71755
C         -3.69196        0.62084       -0.24200
O         -4.73179        0.40929       -0.75037
C         -2.89687        0.78840        2.23580
N         -3.31692        0.68514        3.33279
C         -2.46486        2.78614        0.47616
N         -2.64666        3.95035        0.43173
S          2.02076       -1.71023       -0.31042
S          2.03821        1.39477        0.98902
C          1.13023       -2.99945       -1.25588
H          0.91448       -2.66307       -2.28211
H          0.17308       -3.24645       -0.77407
H          1.75357       -3.90808       -1.30876
C          3.31228        1.61245       -0.30527
H          4.18579        2.13678        0.11619
H          2.92197        2.20621       -1.14835
H          3.62665        0.63109       -0.69018
H         -1.10647       -1.14062        2.96291
H         -2.31048       -2.35499        2.46709
