28
Coordinates from ORCA-job Ni_Fe E -4822.120052180984
  Fe     -2.223828      0.895627      0.522579
  Ni      0.496012     -0.125138      0.060167
  S      -1.426114     -1.200813      0.647101
  S      -0.945087      0.873759     -1.364293
  C      -1.358557     -1.805209      2.349624
  H      -0.660154     -2.641519      2.383160
  C      -0.346138      2.543227     -1.807991
  H       0.088666      2.524324     -2.727209
  H       0.339291      2.857249     -1.140992
  H      -1.104494      3.211768     -1.815857
  C      -3.736364      0.592882     -0.076094
  O      -4.789635      0.372392     -0.500832
  C      -2.841925      0.848490      2.293810
  N      -3.214704      0.792521      3.399620
  C      -2.456224      2.748089      0.427654
  N      -2.604975      3.897539      0.332882
  S       1.850687     -1.717745     -0.364684
  S       2.029767      1.203242      0.578357
  C       1.284144     -2.730529     -1.461555
  H       1.134277     -2.150362     -2.257729
  H       0.471656     -3.106638     -1.195226
  H       1.896503     -3.580020     -1.612903
  C       3.369318      1.413738     -0.096206
  H       4.028319      1.871088      0.475375
  H       3.338944      2.047071     -0.801168
  H       3.575433      0.458046     -0.391114
  H      -1.028999     -1.034092      3.027374
  H      -2.356564     -2.116937      2.632827
28
Coordinates from ORCA-job Ni_Fe E -4822.222354002462
  Fe     -2.234599      0.893813      0.525632
  Ni      0.493925     -0.114468      0.080135
  S      -1.428111     -1.200302      0.656931
  S      -0.944971      0.875672     -1.357989
  C      -1.369749     -1.808366      2.363818
  H      -0.665783     -2.643962      2.399683
  C      -0.349440      2.546248     -1.800041
  H       0.101740      2.521903     -2.742932
  H       0.351592      2.871415     -1.106453
  H      -1.136769      3.226966     -1.812250
  C      -3.744959      0.584317     -0.084455
  O      -4.804205      0.356023     -0.519861
  C      -2.864709      0.846038      2.294488
  N      -3.246623      0.789353      3.403858
  C      -2.474934      2.747663      0.428334
  N      -2.629585      3.905701      0.331443
  S       1.860913     -1.709230     -0.339957
  S       2.019611      1.226258      0.617090
  C       1.277522     -2.754006     -1.477888
  H       1.122064     -2.171813     -2.317135
  H       0.407672     -3.158833     -1.198782
  H       1.905650     -3.611982     -1.631289
  C       3.420944      1.431383     -0.102839
  H       4.118644      1.901275      0.488848
  H       3.388018      2.096095     -0.860063
  H       3.652858      0.455308     -0.414537
  H      -1.046509     -1.032413      3.047242
  H      -2.370955     -2.128005      2.645648
28
Coordinates from ORCA-job Ni_Fe E -4822.280117808365
  Fe     -2.246123      0.893398      0.528707
  Ni      0.495284     -0.096610      0.106319
  S      -1.425622     -1.197877      0.668425
  S      -0.941337      0.881467     -1.351122
  C      -1.378155     -1.812633      2.380663
  H      -0.666552     -2.646400      2.417631
  C      -0.351348      2.553340     -1.791277
  H       0.117467      2.520661     -2.756036
  H       0.361277      2.889727     -1.070300
  H      -1.169488      3.241407     -1.809544
  C      -3.754025      0.574105     -0.097807
  O      -4.815370      0.335718     -0.545810
  C      -2.892694      0.844142      2.294700
  N      -3.285617      0.786179      3.404677
  C      -2.498801      2.749847      0.429031
  N      -2.661691      3.912984      0.330382
  S       1.880691     -1.697307     -0.308362
  S       2.009761      1.264825      0.672756
  C       1.266221     -2.774134     -1.493971
  H       1.104885     -2.201439     -2.378882
  H       0.352339     -3.195680     -1.204775
  H       1.911974     -3.638369     -1.652683
  C       3.471598      1.443638     -0.114656
  H       4.212618      1.913616      0.490076
  H       3.429543      2.122382     -0.920683
  H       3.728861      0.450277     -0.443412
  H      -1.064429     -1.031163      3.071762
  H      -2.382015     -2.144050      2.660868
28
Coordinates from ORCA-job Ni_Fe E -4822.306446328347
  Fe     -2.254734      0.894009      0.527818
  Ni      0.504193     -0.069171      0.133681
  S      -1.412452     -1.193459      0.672900
  S      -0.931157      0.893818     -1.346521
  C      -1.371613     -1.821757      2.387933
  H      -0.650498     -2.651081      2.420368
  C      -0.350662      2.568700     -1.784043
  H       0.135112      2.526266     -2.764691
  H       0.366802      2.914995     -1.037388
  H      -1.198119      3.256599     -1.809614
  C      -3.759021      0.561979     -0.119491
  O      -4.816081      0.312499     -0.580824
  C      -2.920036      0.840273      2.290763
  N      -3.324253      0.779122      3.397910
  C      -2.525340      2.753923      0.429564
  N      -2.699327      3.917641      0.331816
  S       1.914168     -1.677673     -0.275772
  S       2.000789      1.320773      0.744768
  C       1.242272     -2.785557     -1.493156
  H       1.069225     -2.238300     -2.423510
  H       0.290415     -3.210519     -1.178404
  H       1.905554     -3.649516     -1.662655
  C       3.509543      1.446263     -0.128143
  H       4.298952      1.894401      0.485478
  H       3.449548      2.124968     -0.984111
  H       3.782277      0.439897     -0.472287
  H      -1.071151     -1.037164      3.088990
  H      -2.375153     -2.169878      2.665300
28
Coordinates from ORCA-job Ni_Fe E -4822.313431363159
  Fe     -2.251104      0.896617      0.513497
  Ni      0.524712     -0.030656      0.131156
  S      -1.382986     -1.186670      0.637517
  S      -0.915363      0.927762     -1.357601
  C      -1.336904     -1.846098      2.344607
  H      -0.603863     -2.666151      2.360150
  C      -0.347057      2.610964     -1.779717
  H       0.147160      2.571268     -2.766438
  H       0.368923      2.957384     -1.017066
  H      -1.211959      3.292290     -1.803689
  C      -3.752193      0.556913     -0.151780
  O      -4.802666      0.301593     -0.623596
  C      -2.926522      0.820588      2.275146
  N      -3.336156      0.745041      3.379171
  C      -2.542073      2.759616      0.437507
  N      -2.728402      3.922228      0.353621
  S       1.959320     -1.638632     -0.292433
  S       1.997418      1.381763      0.804602
  C       1.180340     -2.824731     -1.427546
  H       0.938203     -2.346329     -2.394029
  H       0.234968     -3.234732     -1.014896
  H       1.854583     -3.682692     -1.608494
  C       3.528147      1.464959     -0.134529
  H       4.351466      1.870712      0.487834
  H       3.449996      2.146272     -1.011485
  H       3.798400      0.457404     -0.501438
  H      -1.051742     -1.067514      3.060994
  H      -2.335395     -2.217117      2.615613
28
Coordinates from ORCA-job Ni_Fe E -4822.314804944262
  Fe     -2.239360      0.898642      0.496033
  Ni      0.545276     -0.007488      0.114816
  S      -1.358302     -1.184342      0.588806
  S      -0.896950      0.961305     -1.372344
  C      -1.307782     -1.874026      2.284681
  H      -0.561504     -2.681846      2.286263
  C      -0.330792      2.652051     -1.770063
  H       0.165945      2.622990     -2.756474
  H       0.382417      2.987829     -0.998866
  H      -1.199120      3.330433     -1.786591
  C      -3.739295      0.563060     -0.182564
  O      -4.785555      0.311026     -0.662150
  C      -2.918766      0.796588      2.256953
  N      -3.330204      0.704249      3.358644
  C      -2.539259      2.764530      0.449473
  N      -2.730810      3.926886      0.383665
  S       1.992534     -1.612922     -0.339869
  S       2.000793      1.410570      0.851491
  C       1.120058     -2.878940     -1.339347
  H       0.797166     -2.473909     -2.317607
  H       0.210801     -3.259207     -0.820600
  H       1.795900     -3.734153     -1.525423
  C       3.520421      1.504108     -0.148270
  H       4.367305      1.864634      0.472645
  H       3.411271      2.210081     -1.005936
  H       3.777461      0.511055     -0.561254
  H      -1.039939     -1.103054      3.015779
  H      -2.300462     -2.268100      2.544790
28
Coordinates from ORCA-job Ni_Fe E -4822.314610176046
  Fe     -2.233158      0.897972      0.489975
  Ni      0.555866     -0.004962      0.119537
  S      -1.348688     -1.186958      0.578011
  S      -0.885093      0.963868     -1.375688
  C      -1.294366     -1.879177      2.272871
  H      -0.533244     -2.672733      2.275920
  C      -0.314041      2.656259     -1.764483
  H       0.188503      2.627816     -2.745808
  H       0.392232      2.986444     -0.987172
  H      -1.180335      3.334281     -1.784365
  C      -3.733614      0.565098     -0.196264
  O      -4.777437      0.315722     -0.679663
  C      -2.914737      0.794939      2.251838
  N      -3.326959      0.701318      3.352809
  C      -2.533318      2.766990      0.449328
  N      -2.724693      3.929046      0.386673
  S       2.010054     -1.613642     -0.360861
  S       1.998358      1.421855      0.902876
  C       1.100904     -2.894487     -1.323695
  H       0.766118     -2.509763     -2.304129
  H       0.200559     -3.246826     -0.778469
  H       1.774372     -3.750673     -1.507009
  C       3.496918      1.518738     -0.153942
  H       4.362721      1.847703      0.453045
  H       3.355790      2.236368     -0.992264
  H       3.733147      0.534938     -0.594731
  H      -1.046127     -1.104451      3.006464
  H      -2.280477     -2.293633      2.525876
28
Coordinates from ORCA-job Ni_Fe E -4822.314340833120
  Fe     -2.227868      0.897672      0.483288
  Ni      0.562637     -0.008116      0.119386
  S      -1.344285     -1.190482      0.566757
  S      -0.876691      0.964889     -1.379867
  C      -1.280508     -1.878376      2.262441
  H      -0.505873     -2.658533      2.268257
  C      -0.302282      2.660209     -1.756868
  H       0.209770      2.635655     -2.730345
  H       0.392691      2.985343     -0.971436
  H      -1.165671      3.337440     -1.782951
  C      -3.730148      0.569596     -0.207014
  O      -4.773545      0.324866     -0.692323
  C      -2.908149      0.795050      2.247014
  N      -3.319168      0.701071      3.348245
  C      -2.524824      2.769701      0.447352
  N      -2.714007      3.931959      0.386907
  S       2.021217     -1.618709     -0.390956
  S       1.995099      1.427325      0.940971
  C       1.090149     -2.912124     -1.315084
  H       0.744066     -2.540773     -2.292835
  H       0.204798     -3.240630     -0.747931
  H       1.761205     -3.769735     -1.491701
  C       3.471168      1.527795     -0.155288
  H       4.347659      1.841472      0.435453
  H       3.304085      2.250347     -0.974136
  H       3.684971      0.547537     -0.608385
  H      -1.047640     -1.098238      2.994905
  H      -2.259608     -2.310161      2.512823
28
Coordinates from ORCA-job Ni_Fe E -4822.314143969325
  Fe     -2.227758      0.895741      0.483986
  Ni      0.561257     -0.021476      0.131168
  S      -1.349957     -1.196250      0.578200
  S      -0.873055      0.950838     -1.375645
  C      -1.275984     -1.865222      2.280605
  H      -0.494681     -2.638574      2.293663
  C      -0.296192      2.646089     -1.752810
  H       0.229048      2.618789     -2.717900
  H       0.385895      2.974150     -0.959289
  H      -1.158117      3.322545     -1.793298
  C      -3.731854      0.569594     -0.206795
  O      -4.775945      0.327624     -0.692103
  C      -2.907220      0.805318      2.249396
  N      -3.317587      0.718612      3.351431
  C      -2.518601      2.769941      0.439311
  N      -2.703979      3.932416      0.372836
  S       2.021089     -1.637770     -0.390395
  S       1.989812      1.426240      0.965243
  C       1.100469     -2.907440     -1.348926
  H       0.783558     -2.515460     -2.326231
  H       0.204200     -3.227289     -0.805855
  H       1.765926     -3.770232     -1.516528
  C       3.450083      1.522743     -0.150420
  H       4.330701      1.842759      0.425762
  H       3.266528      2.239225     -0.963918
  H       3.650830      0.537780     -0.595815
  H      -1.048362     -1.075629      3.004363
  H      -2.250856     -2.303015      2.536642
28
Coordinates from ORCA-job Ni_Fe E -4822.314462760750
  Fe     -2.225809      0.894974      0.480083
  Ni      0.560187     -0.031710      0.130668
  S      -1.354610     -1.201269      0.571409
  S      -0.867700      0.951157     -1.375065
  C      -1.269075     -1.861967      2.276241
  H      -0.486870     -2.634375      2.288873
  C      -0.291015      2.648304     -1.744565
  H       0.247532      2.623718     -2.702449
  H       0.379081      2.977519     -0.941512
  H      -1.153287      3.323454     -1.796208
  C      -3.731358      0.574339     -0.211829
  O      -4.776548      0.337719     -0.698182
  C      -2.904554      0.803665      2.245919
  N      -3.314508      0.716373      3.348109
  C      -2.511332      2.770602      0.438710
  N      -2.693622      3.933731      0.373877
  S       2.019365     -1.651944     -0.399107
  S       1.989353      1.422507      0.972110
  C       1.098943     -2.920699     -1.347938
  H       0.785448     -2.527978     -2.325473
  H       0.203272     -3.232571     -0.803042
  H       1.757600     -3.790159     -1.506446
  C       3.436372      1.530717     -0.152027
  H       4.318066      1.864941      0.413719
  H       3.239313      2.245887     -0.961104
  H       3.634819      0.543623     -0.592990
  H      -1.037704     -1.069065      2.995168
  H      -2.242109     -2.299442      2.539729
28
Coordinates from ORCA-job Ni_Fe E -4822.314896896598
  Fe     -2.227172      0.892952      0.480528
  Ni      0.554969     -0.046091      0.141156
  S      -1.363706     -1.208017      0.578416
  S      -0.862940      0.943617     -1.368100
  C      -1.265946     -1.852615      2.289001
  H      -0.485897     -2.627210      2.303022
  C      -0.286174      2.640227     -1.738138
  H       0.267806      2.612615     -2.688162
  H       0.370896      2.975862     -0.925757
  H      -1.149746      3.313508     -1.806631
  C      -3.733686      0.575019     -0.212400
  O      -4.779485      0.342006     -0.699746
  C      -2.907123      0.807149      2.246377
  N      -3.317877      0.723447      3.348578
  C      -2.507773      2.769671      0.435237
  N      -2.687421      3.933111      0.367697
  S       2.014218     -1.674063     -0.383468
  S       1.986900      1.419969      0.979267
  C       1.107626     -2.917738     -1.370514
  H       0.827502     -2.507666     -2.352003
  H       0.191361     -3.224554     -0.854096
  H       1.754640     -3.798149     -1.518389
  C       3.423859      1.529610     -0.152169
  H       4.306341      1.886424      0.401333
  H       3.215000      2.234464     -0.969408
  H       3.627141      0.536617     -0.578511
  H      -1.025866     -1.053789      2.998499
  H      -2.238195     -2.284325      2.565061
28
Coordinates from ORCA-job Ni_Fe E -4822.315586686275
  Fe     -2.225614      0.892525      0.476371
  Ni      0.552421     -0.054662      0.142014
  S      -1.368745     -1.213488      0.567691
  S      -0.854340      0.950664     -1.364769
  C      -1.260358     -1.854588      2.279337
  H      -0.484385     -2.633342      2.288395
  C      -0.277404      2.648132     -1.727146
  H       0.289154      2.622176     -2.670661
  H       0.369046      2.985920     -0.905972
  H      -1.142230      3.319737     -1.806737
  C      -3.732452      0.579969     -0.219625
  O      -4.778304      0.352402     -0.709544
  C      -2.907641      0.799812      2.241185
  N      -3.319720      0.712152      3.342602
  C      -2.503742      2.769920      0.439027
  N      -2.682482      3.933811      0.376338
  S       2.012471     -1.687932     -0.378637
  S       1.988785      1.418085      0.981188
  C       1.102740     -2.932692     -1.357315
  H       0.829162     -2.530180     -2.345009
  H       0.178925     -3.230446     -0.841978
  H       1.739605     -3.822777     -1.494455
  C       3.412822      1.542330     -0.160904
  H       4.296708      1.918652      0.380845
  H       3.189564      2.241814     -0.982805
  H       3.626992      0.549267     -0.583192
  H      -1.009136     -1.055457      2.984640
  H      -2.232592     -2.279756      2.565797
28
Coordinates from ORCA-job Ni_Fe E -4822.316064298924
  Fe     -2.224853      0.892417      0.475251
  Ni      0.549863     -0.060449      0.147097
  S      -1.372640     -1.217414      0.564407
  S      -0.847131      0.954759     -1.359768
  C      -1.260811     -1.856852      2.276914
  H      -0.488266     -2.639035      2.283082
  C      -0.267928      2.651497     -1.718758
  H       0.304729      2.624848     -2.658807
  H       0.373513      2.990478     -0.893650
  H      -1.132852      3.322613     -1.804547
  C      -3.731336      0.582299     -0.223378
  O      -4.776582      0.357472     -0.715403
  C      -2.909716      0.795944      2.238900
  N      -3.323512      0.706322      3.339485
  C      -2.502690      2.769897      0.441619
  N      -2.681883      3.933814      0.381332
  S       2.011658     -1.697951     -0.364840
  S       1.990912      1.417164      0.984376
  C       1.102626     -2.938208     -1.351326
  H       0.843395     -2.539963     -2.345397
  H       0.167335     -3.228365     -0.847205
  H       1.732115     -3.835220     -1.480090
  C       3.403341      1.550252     -0.171126
  H       4.289474      1.938872      0.360061
  H       3.167771      2.242647     -0.998547
  H       3.628512      0.558683     -0.591994
  H      -1.002190     -1.057779      2.979568
  H      -2.233604     -2.276691      2.569422
28
Coordinates from ORCA-job Ni_Fe E -4822.316498157866
  Fe     -2.223082      0.893541      0.473477
  Ni      0.548412     -0.062377      0.148509
  S      -1.374300     -1.219592      0.557204
  S      -0.840206      0.963072     -1.356572
  C      -1.263463     -1.863025      2.268551
  H      -0.493025     -2.647282      2.271477
  C      -0.258161      2.659667     -1.709249
  H       0.316394      2.634645     -2.647808
  H       0.381581      2.996557     -0.882234
  H      -1.122465      3.331102     -1.795660
  C      -3.728996      0.585459     -0.227319
  O      -4.773581      0.362697     -0.721178
  C      -2.910179      0.790612      2.235963
  N      -3.325242      0.697393      3.335735
  C      -2.502456      2.770609      0.445441
  N      -2.683321      3.934409      0.388789
  S       2.012816     -1.701278     -0.356396
  S       1.994927      1.416988      0.984557
  C       1.101037     -2.947093     -1.335439
  H       0.846804     -2.560852     -2.335590
  H       0.161193     -3.229112     -0.833952
  H       1.726986     -3.847955     -1.455461
  C       3.394881      1.559053     -0.184865
  H       4.282856      1.956174      0.336576
  H       3.147552      2.244449     -1.015462
  H       3.630266      0.570305     -0.606817
  H      -1.001029     -1.065934      2.971972
  H      -2.236947     -2.280185      2.562429
28
Coordinates from ORCA-job Ni_Fe E -4822.316748024150
  Fe     -2.221012      0.895104      0.473397
  Ni      0.547248     -0.064100      0.151224
  S      -1.375844     -1.220866      0.554329
  S      -0.834451      0.968293     -1.353268
  C      -1.270634     -1.868964      2.264348
  H      -0.500688     -2.653692      2.266704
  C      -0.248546      2.664468     -1.700639
  H       0.324739      2.641105     -2.639523
  H       0.392433      2.997567     -0.873552
  H      -1.111463      3.337448     -1.784257
  C      -3.726350      0.588137     -0.228599
  O      -4.770464      0.366326     -0.723606
  C      -2.909901      0.788826      2.234999
  N      -3.325908      0.693884      3.334239
  C      -2.501686      2.771597      0.447555
  N      -2.684017      3.935215      0.392394
  S       2.013877     -1.703277     -0.346991
  S       1.999623      1.415096      0.984599
  C       1.103860     -2.952330     -1.325141
  H       0.857283     -2.573473     -2.329707
  H       0.160247     -3.228278     -0.829673
  H       1.728863     -3.854829     -1.437120
  C       3.385836      1.565464     -0.199425
  H       4.275620      1.968757      0.312658
  H       3.126297      2.244815     -1.030246
  H       3.628305      0.579384     -0.623334
  H      -1.008960     -1.073752      2.970109
  H      -2.245054     -2.285876      2.555206
28
Coordinates from ORCA-job Ni_Fe E -4822.316958927510
  Fe     -2.218040      0.897554      0.473741
  Ni      0.546318     -0.065523      0.153609
  S      -1.377367     -1.221509      0.551408
  S      -0.828447      0.973792     -1.350163
  C      -1.281132     -1.876517      2.259247
  H      -0.510221     -2.660289      2.262445
  C      -0.238204      2.669940     -1.690341
  H       0.332813      2.649692     -2.630306
  H       0.405043      2.997171     -0.863078
  H      -1.099382      3.345280     -1.768888
  C      -3.722811      0.591714     -0.228990
  O      -4.766642      0.370595     -0.724888
  C      -2.908335      0.788369      2.234582
  N      -3.324959      0.691983      3.333453
  C      -2.500044      2.773298      0.449420
  N      -2.683951      3.936722      0.395253
  S       2.015371     -1.703772     -0.338313
  S       2.005906      1.412253      0.983108
  C       1.109217     -2.958405     -1.313485
  H       0.869806     -2.586805     -2.322092
  H       0.163503     -3.228706     -0.822885
  H       1.734960     -3.861380     -1.415696
  C       3.375323      1.571571     -0.217475
  H       4.266693      1.982955      0.283684
  H       3.100811      2.244179     -1.047130
  H       3.623771      0.587387     -0.642126
  H      -1.024163     -1.083815      2.969513
  H      -2.256587     -2.295685      2.543072
28
Coordinates from ORCA-job Ni_Fe E -4822.317084284805
  Fe     -2.214275      0.900241      0.474783
  Ni      0.545999     -0.067781      0.156894
  S      -1.379068     -1.221968      0.549731
  S      -0.822106      0.977451     -1.347043
  C      -1.293570     -1.884501      2.255098
  H      -0.520724     -2.666363      2.260607
  C      -0.227270      2.673612     -1.679893
  H       0.341828      2.656671     -2.621051
  H       0.418291      2.994281     -0.851874
  H      -1.086572      3.351857     -1.753167
  C      -3.718512      0.595880     -0.228715
  O      -4.762168      0.375481     -0.725459
  C      -2.905943      0.789733      2.234960
  N      -3.323104      0.692790      3.333587
  C      -2.496584      2.775402      0.450890
  N      -2.681386      3.938724      0.396910
  S       2.016816     -1.704981     -0.329402
  S       2.012903      1.407846      0.982278
  C       1.116253     -2.964341     -1.303771
  H       0.884747     -2.597152     -2.315651
  H       0.168281     -3.230160     -0.818005
  H       1.743057     -3.867475     -1.396104
  C       3.363257      1.578321     -0.236626
  H       4.256325      1.999479      0.252592
  H       3.070828      2.245528     -1.063167
  H       3.616211      0.595606     -0.662037
  H      -1.044238     -1.094441      2.971015
  H      -2.270026     -2.307691      2.529301
28
Coordinates from ORCA-job Ni_Fe E -4822.317203178102
  Fe     -2.209074      0.903630      0.476125
  Ni      0.546373     -0.070718      0.160981
  S      -1.380966     -1.222323      0.546923
  S      -0.813967      0.981454     -1.343602
  C      -1.308463     -1.894767      2.248843
  H      -0.532728     -2.673757      2.257483
  C      -0.213956      2.677821     -1.667161
  H       0.354256      2.665067     -2.609137
  H       0.433283      2.990633     -0.837109
  H      -1.071168      3.359484     -1.735113
  C      -3.712654      0.601638     -0.228787
  O      -4.756067      0.382420     -0.726761
  C      -2.902395      0.791790      2.235532
  N      -3.320127      0.694224      3.333908
  C      -2.491001      2.778321      0.453259
  N      -2.676384      3.941617      0.399673
  S       2.018887     -1.706522     -0.319636
  S       2.021634      1.402338      0.981813
  C       1.124438     -2.972557     -1.291275
  H       0.900954     -2.610440     -2.306798
  H       0.173810     -3.233454     -0.809063
  H       1.752114     -3.876083     -1.371671
  C       3.347900      1.587414     -0.260091
  H       4.242547      2.023145      0.213587
  H       3.031502      2.248011     -1.082628
  H       3.606281      0.605915     -0.685172
  H      -1.069949     -1.108219      2.972322
  H      -2.285828     -2.324035      2.510232
28
Coordinates from ORCA-job Ni_Fe E -4822.317271784596
  Fe     -2.204501      0.906436      0.477458
  Ni      0.547320     -0.073080      0.164858
  S      -1.382390     -1.222377      0.544058
  S      -0.807047      0.984353     -1.340945
  C      -1.320109     -1.903456      2.242849
  H      -0.541710     -2.679774      2.254035
  C      -0.203317      2.680960     -1.657119
  H       0.365480      2.671390     -2.599047
  H       0.444086      2.988072     -0.824632
  H      -1.059066      3.365043     -1.722162
  C      -3.707444      0.606818     -0.229307
  O      -4.750513      0.388801     -0.728592
  C      -2.899241      0.793703      2.236241
  N      -3.317384      0.695614      3.334432
  C      -2.485518      2.780993      0.456097
  N      -2.670987      3.944336      0.403099
  S       2.020910     -1.707568     -0.312092
  S       2.028586      1.398340      0.982327
  C       1.130728     -2.979480     -1.280820
  H       0.912957     -2.621617     -2.299227
  H       0.177421     -3.236598     -0.800412
  H       1.758404     -3.883744     -1.351713
  C       3.335124      1.595070     -0.278903
  H       4.230110      2.045943      0.180760
  H       2.997347      2.248370     -1.099385
  H       3.599128      0.613931     -0.701356
  H      -1.091240     -1.119990      2.972814
  H      -2.297885     -2.338439      2.493366
28
Coordinates from ORCA-job Ni_Fe E -4822.317279279840
  Fe     -2.202389      0.907947      0.478431
  Ni      0.548285     -0.073283      0.166892
  S      -1.382850     -1.221755      0.541809
  S      -0.804241      0.985937     -1.340113
  C      -1.324950     -1.907890      2.238707
  H      -0.544696     -2.682341      2.250852
  C      -0.199871      2.682943     -1.653125
  H       0.370533      2.674748     -2.594228
  H       0.446133      2.988611     -0.818783
  H      -1.055430      3.367384     -1.718478
  C      -3.704877      0.609631     -0.229878
  O      -4.747614      0.392189     -0.730029
  C      -2.897593      0.794683      2.236994
  N      -3.315652      0.696125      3.335183
  C      -2.482732      2.782642      0.458735
  N      -2.668117      3.946035      0.406437
  S       2.022290     -1.706323     -0.309777
  S       2.031296      1.398030      0.982796
  C       1.133462     -2.982349     -1.275284
  H       0.916802     -2.627417     -2.295052
  H       0.178889     -3.238035     -0.794239
  H       1.760821     -3.887171     -1.341911
  C       3.330546      1.597255     -0.286944
  H       4.224106      2.059608      0.164830
  H       2.981999      2.242929     -1.109931
  H       3.599241      0.614785     -0.703098
  H      -1.101638     -1.126140      2.972256
  H      -2.302504     -2.346728      2.483627
28
Coordinates from ORCA-job Ni_Fe E -4822.317223616707
  Fe     -2.200285      0.908557      0.479472
  Ni      0.549862     -0.074724      0.169606
  S      -1.383322     -1.221669      0.540273
  S      -0.801339      0.985812     -1.339323
  C      -1.328105     -1.911172      2.235941
  H      -0.546942     -2.684704      2.248387
  C      -0.196324      2.682739     -1.651111
  H       0.376265      2.674517     -2.590880
  H       0.447612      2.988737     -0.815275
  H      -1.051742      3.367131     -1.718612
  C      -3.702243      0.612208     -0.231094
  O      -4.744551      0.395864     -0.732463
  C      -2.896351      0.795261      2.237677
  N      -3.314585      0.696439      3.335774
  C      -2.478629      2.783749      0.461688
  N      -2.663006      3.947326      0.410228
  S       2.022869     -1.707199     -0.308055
  S       2.033134      1.396339      0.985535
  C       1.133990     -2.985104     -1.271814
  H       0.918087     -2.632273     -2.292488
  H       0.178017     -3.239509     -0.790857
  H       1.759965     -3.891083     -1.336235
  C       3.325749      1.601864     -0.291745
  H       4.217393      2.074612      0.153289
  H       2.966858      2.241268     -1.115925
  H       3.600182      0.619780     -0.704697
  H      -1.107778     -1.130572      2.971618
  H      -2.305531     -2.352143      2.477766
28
Coordinates from ORCA-job Ni_Fe E -4822.318798358295
  Fe     -2.199130      0.908818      0.480236
  Ni      0.551261     -0.075160      0.171368
  S      -1.383581     -1.221234      0.538339
  S      -0.799930      0.986245     -1.339240
  C      -1.328936     -1.913039      2.233162
  H      -0.547047     -2.685845      2.245064
  C      -0.195727      2.683402     -1.650408
  H       0.379865      2.675046     -2.588231
  H       0.444915      2.991467     -0.812956
  H      -1.051648      3.366652     -1.721531
  C      -3.700511      0.614066     -0.232629
  O      -4.742375      0.398611     -0.735170
  C      -2.895670      0.794960      2.238167
  N      -3.313791      0.695515      3.336248
  C      -2.475765      2.784545      0.464946
  N      -2.659337      3.948280      0.414675
  S       2.023074     -1.706513     -0.308898
  S       2.033614      1.396423      0.987197
  C       1.133323     -2.986692     -1.268969
  H       0.916498     -2.636968     -2.290462
  H       0.176978     -3.240020     -0.787371
  H       1.758045     -3.893674     -1.332074
  C       3.324125      1.603667     -0.293405
  H       4.212114      2.087723      0.146397
  H       2.958634      2.233362     -1.122308
  H       3.606123      0.620960     -0.699366
  H      -1.109886     -1.133104      2.969913
  H      -2.305984     -2.355443      2.473987
28
Coordinates from ORCA-job Ni_Fe E -4822.318319393766
  Fe     -2.187064      0.912517      0.487716
  Ni      0.564808     -0.079134      0.188812
  S      -1.386735     -1.216126      0.514991
  S      -0.784535      0.994314     -1.337945
  C      -1.338067     -1.933853      2.199960
  H      -0.548678     -2.699070      2.205422
  C      -0.189016      2.694285     -1.640255
  H       0.417574      2.686264     -2.557168
  H       0.416693      3.022519     -0.786231
  H      -1.049404      3.365486     -1.748263
  C      -3.682163      0.635103     -0.249125
  O      -4.719304      0.429441     -0.764033
  C      -2.888441      0.790587      2.242646
  N      -3.305274      0.683309      3.340441
  C      -2.446628      2.793274      0.500661
  N      -2.622515      3.958491      0.464120
  S       2.025127     -1.698190     -0.316493
  S       2.039902      1.397986      1.001598
  C       1.127818     -3.005451     -1.233367
  H       0.901275     -2.692185     -2.264002
  H       0.167543     -3.246779     -0.744813
  H       1.740004     -3.922478     -1.279148
  C       3.305913      1.621662     -0.314975
  H       4.147592      2.222864      0.063443
  H       2.875142      2.140627     -1.189785
  H       3.671105      0.639716     -0.645900
  H      -1.132304     -1.161877      2.948704
  H      -2.311116     -2.391251      2.429668
28
Coordinates from ORCA-job Ni_Fe E -4822.318752947773
  Fe     -2.196669      0.909153      0.481461
  Ni      0.553804     -0.077014      0.174774
  S      -1.384621     -1.220898      0.534433
  S      -0.796446      0.987669     -1.338897
  C      -1.330655     -1.916549      2.227909
  H      -0.548350     -2.688958      2.238168
  C      -0.193509      2.685180     -1.648359
  H       0.387797      2.676734     -2.582447
  H       0.440845      2.997219     -0.807935
  H      -1.050345      3.366251     -1.726384
  C      -3.696783      0.618052     -0.236083
  O      -4.737797      0.404755     -0.741127
  C      -2.894597      0.793579      2.238607
  N      -3.312768      0.692643      3.336521
  C      -2.469569      2.785902      0.471454
  N      -2.651439      3.949979      0.423854
  S       2.022714     -1.706963     -0.309981
  S       2.034987      1.395469      0.990142
  C       1.131761     -2.991235     -1.262791
  H       0.914275     -2.648277     -2.286359
  H       0.174658     -3.241795     -0.781214
  H       1.754053     -3.900220     -1.322438
  C       3.319318      1.608795     -0.297318
  H       4.199653      2.114597      0.132302
  H       2.940647      2.219500     -1.134161
  H       3.617574      0.626372     -0.691718
  H      -1.111936     -1.137851      2.966020
  H      -2.307351     -2.360038      2.468249
28
Coordinates from ORCA-job Ni_Fe E -4822.318754309730
  Fe     -2.195668      0.909350      0.481650
  Ni      0.554258     -0.078108      0.175807
  S      -1.385070     -1.221137      0.533959
  S      -0.794776      0.988252     -1.338433
  C      -1.332367     -1.917700      2.227120
  H      -0.550246     -2.690297      2.237399
  C      -0.191391      2.685825     -1.646394
  H       0.390461      2.677948     -2.580163
  H       0.442426      2.997449     -0.805412
  H      -1.048118      3.367033     -1.724554
  C      -3.695439      0.619157     -0.236863
  O      -4.736290      0.406402     -0.742522
  C      -2.894285      0.793318      2.238461
  N      -3.312705      0.692123      3.336258
  C      -2.467770      2.786219      0.472410
  N      -2.649373      3.950357      0.425221
  S       2.022508     -1.708111     -0.308940
  S       2.036262      1.394219      0.990474
  C       1.132239     -2.993029     -1.261069
  H       0.916260     -2.651386     -2.285424
  H       0.174664     -3.242463     -0.780589
  H       1.754368     -3.902243     -1.318786
  C       3.316180      1.610874     -0.300401
  H       4.195123      2.121386      0.126360
  H       2.932860      2.217859     -1.137502
  H       3.618261      0.629182     -0.693815
  H      -1.113809     -1.139412      2.965712
  H      -2.309310     -2.361017      2.466715
28
Coordinates from ORCA-job Ni_Fe E -4822.318747175662
  Fe     -2.196201      0.909104      0.481623
  Ni      0.554717     -0.077190      0.175491
  S      -1.385398     -1.220396      0.533329
  S      -0.795760      0.990606     -1.339581
  C      -1.330881     -1.916343      2.226768
  H      -0.549958     -2.690168      2.235604
  C      -0.195240      2.689289     -1.645926
  H       0.387902      2.682987     -2.578976
  H       0.436584      3.002781     -0.804169
  H      -1.053301      3.368745     -1.725292
  C      -3.695116      0.619296     -0.238513
  O      -4.735654      0.406563     -0.745042
  C      -2.895414      0.791331      2.237953
  N      -3.313701      0.689173      3.335725
  C      -2.467771      2.786207      0.474287
  N      -2.649591      3.950359      0.428212
  S       2.021107     -1.706278     -0.312131
  S       2.035385      1.396751      0.987732
  C       1.131899     -2.992921     -1.260805
  H       0.915820     -2.654164     -2.286239
  H       0.175361     -3.241885     -0.780589
  H       1.755347     -3.901349     -1.316679
  C       3.318465      1.606190     -0.299359
  H       4.191666      2.127272      0.126073
  H       2.935752      2.199108     -1.145667
  H       3.630372      0.622450     -0.680319
  H      -1.109010     -1.138002      2.964317
  H      -2.308131     -2.357466      2.468853
28
Coordinates from ORCA-job Ni_Fe E -4822.318749320483
  Fe     -2.194610      0.909179      0.481509
  Ni      0.555569     -0.079010      0.176435
  S      -1.385535     -1.221060      0.532370
  S      -0.793105      0.990808     -1.338934
  C      -1.332593     -1.918216      2.225367
  H      -0.552280     -2.692657      2.234239
  C      -0.191023      2.689198     -1.643866
  H       0.391815      2.683223     -2.577124
  H       0.441443      3.001095     -0.801947
  H      -1.048417      3.369626     -1.722242
  C      -3.693311      0.620714     -0.239610
  O      -4.733687      0.408896     -0.746811
  C      -2.894853      0.790873      2.237404
  N      -3.313715      0.688426      3.334928
  C      -2.465089      2.786442      0.475074
  N      -2.646340      3.950705      0.429537
  S       2.021161     -1.708968     -0.310485
  S       2.037240      1.394004      0.989365
  C       1.131267     -2.996393     -1.257784
  H       0.915548     -2.658733     -2.283670
  H       0.174276     -3.244263     -0.777136
  H       1.754190     -3.905267     -1.312351
  C       3.313575      1.611745     -0.303110
  H       4.187085      2.134490      0.119922
  H       2.924833      2.206354     -1.145824
  H       3.626903      0.630264     -0.688637
  H      -1.110743     -1.140594      2.963675
  H      -2.310354     -2.358832      2.466386
28
Coordinates from ORCA-job Ni_Fe E -4822.318748530677
  Fe     -2.194090      0.909149      0.481393
  Ni      0.556058     -0.079470      0.176744
  S      -1.385436     -1.221211      0.531994
  S      -0.792181      0.991231     -1.338832
  C      -1.332855     -1.918609      2.224909
  H      -0.553062     -2.693577      2.233713
  C      -0.189856      2.689689     -1.642955
  H       0.392868      2.684118     -2.576299
  H       0.442780      3.000894     -0.800868
  H      -1.047108      3.370367     -1.720793
  C      -3.692582      0.621153     -0.240342
  O      -4.732814      0.409628     -0.747934
  C      -2.894984      0.790368      2.237009
  N      -3.314163      0.687702      3.334388
  C      -2.464255      2.786491      0.475486
  N      -2.645417      3.950782      0.430280
  S       2.021112     -1.709848     -0.310084
  S       2.037853      1.393468      0.989779
  C       1.130970     -2.997807     -1.256713
  H       0.915372     -2.660682     -2.282800
  H       0.173775     -3.245264     -0.775727
  H       1.753869     -3.906736     -1.310603
  C       3.312010      1.613175     -0.304492
  H       4.185391      2.137138      0.117496
  H       2.921214      2.207577     -1.146648
  H       3.626262      0.632230     -0.690598
  H      -1.110560     -1.141274      2.963385
  H      -2.310922     -2.358633      2.465792
28
Coordinates from ORCA-job Ni_Fe E -4822.318747441487
  Fe     -2.193891      0.908997      0.481143
  Ni      0.556622     -0.079434      0.176680
  S      -1.385076     -1.221206      0.531691
  S      -0.791740      0.992000     -1.339005
  C      -1.332371     -1.918399      2.224685
  H      -0.553468     -2.694267      2.233261
  C      -0.189607      2.690694     -1.642305
  H       0.392745      2.685743     -2.575890
  H       0.443357      3.001195     -0.800170
  H      -1.046863      3.371468     -1.719267
  C      -3.692089      0.621235     -0.241249
  O      -4.732133      0.409833     -0.749250
  C      -2.895611      0.789449      2.236397
  N      -3.315185      0.686459      3.333592
  C      -2.464057      2.786392      0.475847
  N      -2.645357      3.950677      0.431063
  S       2.020951     -1.710332     -0.310251
  S       2.038147      1.393677      0.989711
  C       1.130461     -2.999027     -1.255960
  H       0.914581     -2.662422     -2.282141
  H       0.173306     -3.246262     -0.774258
  H       1.753619     -3.907794     -1.309347
  C       3.311492      1.613505     -0.305173
  H       4.184788      2.138123      0.116375
  H       2.920082      2.207632     -1.147487
  H       3.626284      0.632656     -0.691055
  H      -1.108882     -1.141288      2.963033
  H      -2.310855     -2.357255      2.466010
28
Coordinates from ORCA-job Ni_Fe E -4822.318747245738
  Fe     -2.194148      0.908858      0.481029
  Ni      0.556807     -0.079001      0.176470
  S      -1.384753     -1.221079      0.531852
  S      -0.792049      0.992394     -1.339188
  C      -1.331747     -1.917812      2.225013
  H      -0.553404     -2.694247      2.233468
  C      -0.190197      2.691230     -1.642347
  H       0.391611      2.686582     -2.576263
  H       0.443239      3.001410     -0.800445
  H      -1.047517      3.371998     -1.718562
  C      -3.692194      0.620885     -0.241538
  O      -4.732148      0.409329     -0.749651
  C      -2.896295      0.788947      2.236105
  N      -3.316078      0.685856      3.333209
  C      -2.464671      2.786221      0.475842
  N      -2.646254      3.950465      0.431175
  S       2.020834     -1.710187     -0.310399
  S       2.037990      1.394393      0.989300
  C       1.130334     -2.998995     -1.256250
  H       0.914461     -2.662279     -2.282373
  H       0.173185     -3.246284     -0.774450
  H       1.753674     -3.907621     -1.309590
  C       3.312225      1.612619     -0.304854
  H       4.185735      2.136648      0.117019
  H       2.921917      2.206869     -1.147653
  H       3.626501      0.631400     -0.690201
  H      -1.107355     -1.140696      2.963078
  H      -2.310454     -2.355856      2.466885
28
Coordinates from ORCA-job Ni_Fe E -4822.316957440346
  Fe     -2.194141      0.908785      0.480978
  Ni      0.557155     -0.078792      0.176464
  S      -1.384476     -1.220989      0.531753
  S      -0.791959      0.992898     -1.339245
  C      -1.331550     -1.917626      2.224943
  H      -0.553694     -2.694551      2.233286
  C      -0.190228      2.691857     -1.641959
  H       0.391198      2.687588     -2.576101
  H       0.443522      3.001686     -0.800177
  H      -1.047579      3.372641     -1.717553
  C      -3.691964      0.620840     -0.241996
  O      -4.731793      0.409287     -0.750367
  C      -2.896869      0.788404      2.235801
  N      -3.316921      0.685139      3.332786
  C      -2.464861      2.786136      0.476157
  N      -2.646658      3.950355      0.431735
  S       2.020760     -1.710234     -0.310416
  S       2.038214      1.394769      0.989017
  C       1.130229     -2.999450     -1.255877
  H       0.914481     -2.663071     -2.282113
  H       0.173079     -3.246448     -0.774070
  H       1.753569     -3.908084     -1.308758
  C       3.312284      1.612447     -0.305270
  H       4.185790      2.136775      0.116186
  H       2.921968      2.206212     -1.148346
  H       3.626649      0.631088     -0.690177
  H      -1.106470     -1.140620      2.962912
  H      -2.310485     -2.354994      2.467089
