21
lambda = 0.55555556
Fe     0.565282622531     0.032742849749    -0.243748629633
S      1.164697785633    -2.077802438313     0.245947391026
S      1.459376295561     1.134549845359     1.469173310982
S     -1.597706316526    -0.134190817067    -0.655135476132
S      1.218095623350     0.995711057115    -2.077432629958
C     -2.089139289407     1.362524829946    -1.568063941210
H     -1.360761412200     1.587176436175    -2.355162556390
H     -3.067434865148     1.190518703332    -2.026367734069
H     -2.159922665868     2.224530776064    -0.892976903503
C      0.600878281105    -3.133174285592    -1.081261455007
H      0.989883768792    -4.149626471235    -0.924216712662
H     -0.476641296376    -3.149871670751    -1.104580800353
H      0.943992780739    -2.757332363161    -2.023226600095
C      0.689804920177     2.637767887975     1.699039794885
H     -0.192232550651     2.492135453773     2.108251057096
H      1.270418886646     3.137263086861     2.349535308052
H      0.515503962171     3.213209989473     0.799273991669
C      2.941111888915     1.547404787434    -1.807617055385
H      3.606505310502     0.696286368073    -1.707258989640
H      3.267555927895     2.141810237357    -2.660825389190
H      3.013095382160     2.145980977429    -0.907495890483
