21
lambda = 0.11111111
Fe     0.524872329842     0.041784212311    -0.277542368482
S      1.181185031210    -2.035785907007     0.120278066092
S      1.403295809642     0.843521772813     1.583312683792
S     -1.515024688713    -0.381829597445    -0.967025722076
S      1.064339858849     1.482890958797    -1.827020010301
C     -2.172137497081     1.055419115477    -1.882813607688
H     -1.490641364701     1.338988318369    -2.695858952036
H     -3.145268039052     0.780274765996    -2.310751581815
H     -2.303958180858     1.920344340005    -1.219505939168
C      0.366175519974    -3.212512093458    -0.992545015005
H      0.768807071362    -4.217752217609    -0.796454739761
H     -0.711433697442    -3.211866979577    -0.825118104567
H      0.545507651713    -2.946705493716    -2.031346356129
C      1.158234281841     2.608808047365     1.683589579364
H      0.361723438140     2.812553337571     2.345154695822
H      2.041624523592     3.052576260766     2.076266023057
H      0.907377494168     3.046373401403     0.715119347809
C      2.809689994596     1.963870256331    -1.550990884578
H      3.463193220950     1.089670500767    -1.603855671126
H      3.105934703104     2.673071776791    -2.333368321688
H      2.938867578865     2.433920464047    -0.573673031513
