21
lambda = 0.77777778
Fe     0.585522070643     0.028223410481    -0.226843973846
S      1.156547804343    -2.098807868411     0.308807118376
S      1.487425788456     1.280113668145     1.412114730116
S     -1.639023249611    -0.010275365235    -0.499173240942
S      1.294997782508     0.752128687708    -2.202644562890
C     -2.047594001638     1.516156208474    -1.410704699655
H     -1.295790813864     1.711312610844    -2.184846348980
H     -3.028481327797     1.395734172142    -1.884177632607
H     -2.087829745364     2.376720680603    -0.729758225355
C      0.718225988224    -3.093483086367    -1.125580537445
H      1.100457665478    -4.115534522164    -0.988120884058
H     -0.359266551238    -3.118891616657    -1.244177646415
H      1.143147096777    -2.662588513589    -2.019155655738
C      0.455493064500     2.652159919028     1.706787449460
H     -0.469211487652     2.331728951622     1.990072956834
H      0.884789443182     3.179709271002     2.486055082851
H      0.319212849586     3.296393654635     0.841277526253
C      3.006863643209     1.339144031640    -1.935980241207
H      3.678203738961     0.499539650156    -1.759112197620
H      3.348363787696     1.876220125889    -2.824573519289
H      3.050311493602     2.001911170049    -1.074415407841
