21
Best interpolated MECP guess: index=7, lambda=0.66666667
Fe     0.575385195703     0.030482509108    -0.235300194921
S      1.160575974239    -2.088306571139     0.277364722259
S      1.473396417041     1.207306863496     1.440638467780
S     -1.618376723479    -0.072281121972    -0.577162914646
S      1.256534564475     0.873916081695    -2.140035784872
C     -2.068389737489     1.439301258563    -1.489376524591
H     -1.328291424075     1.649223465627    -2.269988457478
H     -3.047976571672     1.293079687666    -1.955271772133
H     -2.123913787120     2.300577385079    -0.811344644587
C      0.659553971388    -3.113339833625    -1.103440565007
H      1.045152943150    -4.132595034642    -0.956157205887
H     -0.417943196110    -3.134372843544    -1.174446474299
H      1.043614062996    -2.709989080522    -2.021196661086
C      0.572697579761     2.645007848127     1.702902348765
H     -0.330721547849     2.412030982824     2.049025147414
H      1.077617477410     3.158434793385     2.417852629301
H      0.417535579172     3.254919136491     0.820312652634
C      2.973967362495     1.443288420210    -1.871773598087
H      3.642333332890     0.597940334899    -1.733109819268
H      3.307961234093     2.008994852498    -2.742689656065
H      3.031652332984     2.073996105775    -0.990951605225
