21
lambda = 0.33333333
Fe     0.545092131606     0.037263943480    -0.260642135013
S      1.172981445165    -2.056793151428     0.183123497102
S      1.431339854259     0.989057046384     1.526247881706
S     -1.556355333265    -0.257969026506    -0.811073370944
S      1.141228169650     1.239304171739    -1.952228688131
C     -2.130618597615     1.209005627254    -1.725445624377
H     -1.425688181672     1.463100497963    -2.525524547211
H     -3.106335542905     0.985436724880    -2.168560717899
H     -2.231908346634     2.072478981221    -1.056261235881
C      0.483525281795    -3.172833798383    -1.036886530768
H      0.879360219227    -4.183677130757    -0.860345339096
H     -0.594046824236    -3.180876631952    -0.964792296170
H      0.744712864074    -2.851994828596    -2.027281809520
C      0.923978139595     2.623250224907     1.691324449307
H      0.084746234526     2.652259768205     2.226821325413
H      1.656010970705     3.094963561385     2.212850214721
H      0.711287743115     3.129691014062     0.757165478996
C      2.875418324514     1.755625802071    -1.679325320972
H      3.534867465743     0.892955294290    -1.655620944077
H      3.186744168413     2.407457829884    -2.497105922910
H      2.976024853939     2.289909319892    -0.740588274275
