9
lambda = 0.44444444
C     -0.761027246551     1.700040395314     0.038796015230
H     -1.010162595115     1.856313744682     0.829255569387
H     -0.056743484182     2.245718643620    -0.146355297232
H     -1.372635759967     1.827219537249    -0.526059245444
Co    -0.323689534258    -0.069174163613    -0.297250406641
O     -1.591254433310    -1.053537630503     0.105243903619
H     -2.013476808384    -1.174090883752     0.389526202678
C      1.390166473927    -0.192202622754    -0.049021341029
O      2.373732387840    -0.279724020243     0.139410599432
