9
lambda = 0.00000000
C     -0.729839093681     1.776958059024    -0.020237888820
H     -0.416558999276     1.949144101098     1.004122363741
H     -0.127427384752     2.351817882139    -0.746493049214
H     -1.805364449239     1.899014353779    -0.171646574919
Co    -0.410113633639     0.091207109691    -0.773853162017
O     -1.470851166986    -1.108730733227    -0.267286051773
H     -1.573724648296    -1.450852816788     0.635095033334
C      1.124203563136    -0.220802617108     0.110258460787
O      2.044584812733    -0.427192338608     0.713586868881
