9
lambda = 0.33333333
C     -0.753120567413     1.719326282855     0.024059851036
H     -0.861803846924     1.879491112430     0.872939276091
H     -0.074204284700     2.272279317676    -0.296137974493
H     -1.480524956495     1.845189328104    -0.437575884487
Co    -0.345405592030    -0.029048080425    -0.416390442346
O     -1.561268397706    -1.067207639814     0.012232409227
H     -1.903651865130    -1.243107444416     0.451026039716
C      1.323584251556    -0.199526402657    -0.009359763052
O      2.291304258842    -0.316833473755     0.282752488308
