9
lambda = 0.66666667
C     -0.776621322986     1.661581563459     0.068312967255
H     -1.306964393035     1.809898566475     0.741822172210
H     -0.021401533897     2.192669024360     0.153713578759
H     -1.156271415330     1.791322128984    -0.703265580706
Co    -0.280477484567    -0.149364800264    -0.058949028953
O     -1.651456066471    -1.025941079142     0.291508881314
H     -2.233352888429    -1.035709917234     0.266741787351
C      1.523147929323    -0.177902625577    -0.128661241937
O      2.538306175393    -0.205989861061    -0.147677535293
