9
lambda = 0.22222222
C     -0.745354392249     1.738541838848     0.009294296596
H     -0.713429849608     1.902642840146     0.916698995664
H     -0.091885645410     2.298823267614    -0.446198823007
H     -1.588793535077     1.863137546949    -0.348993396195
Co    -0.366994429285     0.011043396985    -0.535562146889
O     -1.531131722831    -1.081028251564    -0.080889156683
H     -1.793683962036    -1.312280469839     0.512447344167
C      1.257127019129    -0.206645300145     0.030442632395
O      2.209055517368    -0.353671868993     0.426306253950
