9
lambda = 0.88888889
C     -0.791951443229     1.623248502889     0.097887623232
H     -1.603673833502     1.763732473850     0.654140678224
H      0.014202518848     2.139559567990     0.454166268075
H     -0.939182063586     1.755448233879    -0.880488325945
Co    -0.237461405756    -0.229505467471     0.179468080365
O     -1.711951772085    -0.998104581066     0.477840238775
H     -2.453491380596    -0.897242317297     0.143919517462
C      1.655870413693    -0.163931915214    -0.208371740286
O      2.702547966213    -0.132641497561    -0.435016339902
