9
lambda = 0.77777778
C     -0.784185268066     1.642464058882     0.083122068793
H     -1.455299836187     1.786884201566     0.697900397798
H     -0.003478841861     2.166103517927     0.304105419562
H     -1.047450642168     1.773396452724    -0.791905837654
Co    -0.259050243011    -0.189413990062     0.060296375823
O     -1.681815097209    -1.011925192815     0.384718672866
H     -2.343523477503    -0.966415342721     0.205340821913
C      1.589413181265    -0.171050812703    -0.168569344839
O      2.620299224739    -0.169479892800    -0.291462574260
