12
lambda = 0.88888889
Mn    -2.183775499087     1.752898046816    -0.820239889347
C     -2.322062167909    -0.140136716723    -0.820243891785
C     -2.350261207258     1.752900943718    -3.065350683321
C     -2.350264965879     1.752901075197     1.424846640785
C     -2.322064393068     3.645932368757    -0.820242945982
C     -0.227961222884     1.752896612665    -0.820245054258
O      0.905337423297     1.752894169252    -0.820247708695
O     -2.432793368560    -1.270240577973    -0.820244938139
O     -2.748153873584     1.752909227496    -4.114427491763
O     -2.432797805786     4.776036066261    -0.820243426062
O     -2.748143027427     1.752910998718     2.473929617324
Br    -4.682114611855     1.752894785814    -0.820255908755
