12
lambda = 0.66666667
Mn    -2.189906549943     1.752898110885    -0.820242252470
C     -2.330336027597    -0.136909115966    -0.820244262547
C     -2.351817610783     1.752902140922    -2.974132044487
C     -2.351819058248     1.752902017323     1.333631539387
C     -2.330338514800     3.642704830001    -0.820243865332
C     -0.266598614274     1.752896372546    -0.820245879162
O      0.868346471523     1.752893043460    -0.820247509347
O     -2.442537108808    -1.265984008210    -0.820244490785
O     -2.679387334885     1.752910600479    -4.042435725101
O     -2.442541201321     4.771779640521    -0.820243888164
O     -2.679378052839     1.752911359591     2.401939489342
Br    -4.698741118023     1.752892008448    -0.820256791334
