12
Best interpolated MECP guess: index=10, lambda=1.00000000
Mn    -2.180662986880     1.752897725102    -0.820238996586
C     -2.317862423409    -0.141752639708    -0.820243686057
C     -2.349586280158     1.752900840899    -3.110974915929
C     -2.349590719865     1.752900955657     1.470469659008
C     -2.317864956069     3.647547636268    -0.820242637968
C     -0.208595658752     1.752896312410    -0.820244754565
O      0.923881191635     1.752894015722    -0.820247653592
O     -2.427858341803    -1.272372304210    -0.820245061166
O     -2.782638783592     1.752910028409    -4.150439150550
O     -2.427863612773     4.778167083809    -0.820243425639
O     -2.782627187886     1.752911966258     2.509940787109
Br    -4.673784960448     1.752895379383    -0.820255844064
