12
lambda = 0.22222222
Mn    -2.202450572329     1.752899977098    -0.820245245910
C     -2.347260634911    -0.130441178810    -0.820245126150
C     -2.354310769856     1.752901560635    -2.791605287674
C     -2.354310441961     1.752901792440     1.151108531447
C     -2.347261015060     3.636240763693    -0.820244794068
C     -0.344154607676     1.752898414192    -0.820246852418
O      0.794074813270     1.752895090431    -0.820248039315
O     -2.462403529104    -1.257450220551    -0.820244199978
O     -2.541244413535     1.752904422020    -3.898357539044
O     -2.462402963867     4.763249960975    -0.820243428598
O     -2.541238064674     1.752905193480     2.257862598612
Br    -4.732092520296     1.752891224399    -0.820256296904
