12
lambda = 0.55555556
Mn    -2.193113035708     1.752899011957    -0.820242567628
C     -2.334661401410    -0.135288947766    -0.820244508967
C     -2.352285988557     1.752901252177    -2.928477985497
C     -2.352287703920     1.752901433819     1.287977586116
C     -2.334662704064     3.641086566225    -0.820243870025
C     -0.286057915280     1.752897513428    -0.820245953338
O      0.849706118283     1.752894629842    -0.820247874005
O     -2.447598448832    -1.263845399262    -0.820244569058
O     -2.644699143560     1.752906824758    -4.006392515404
O     -2.447600384827     4.769643013618    -0.820243427330
O     -2.644690546050     1.752908096099     2.365896107968
Br    -4.707103566076     1.752893005107    -0.820256102830
