21
Coordinates from ORCA-job T_Q_Zero_triplet_min E -3015.118993444020
  Fe      0.605036      0.063883     -0.216844
  S       1.173998     -2.065766      0.206381
  S       1.807018      0.901254      1.542614
  S      -1.505391     -0.338044     -0.802687
  S       1.024275      1.635844     -1.762702
  C      -2.181416      0.901271     -1.939798
  H      -1.485234      1.133361     -2.658451
  H      -3.071094      0.576022     -2.440543
  H      -2.420118      1.774124     -1.448695
  C       0.279116     -3.098633     -0.953258
  H       0.436371     -4.106648     -0.695699
  H      -0.797787     -2.896649     -0.957110
  H       0.630820     -2.945209     -1.928884
  C       1.238917      2.590258      1.729808
  H       0.239438      2.574885      2.128304
  H       1.880754      3.144055      2.394518
  H       1.230984      3.110903      0.789753
  C       2.779990      1.993962     -1.611803
  H       3.253224      1.400832     -2.107028
  H       2.980404      2.835320     -1.921922
  H       3.203059      1.952588     -0.710104
21
Coordinates from ORCA-job T_Q_Zero_triplet_min E -3015.184750835740
  Fe      0.594985      0.064779     -0.212367
  S       1.168728     -2.054354      0.211283
  S       1.781115      0.887160      1.549558
  S      -1.512464     -0.320998     -0.792677
  S       1.014543      1.620644     -1.761665
  C      -2.173450      0.926521     -1.929762
  H      -1.455317      1.157452     -2.673892
  H      -3.076258      0.592123     -2.426893
  H      -2.411220      1.825236     -1.418415
  C       0.291677     -3.111927     -0.947840
  H       0.465201     -4.134637     -0.672869
  H      -0.788641     -2.919278     -0.953642
  H       0.653482     -2.958923     -1.943529
  C       1.215408      2.583198      1.739349
  H       0.204907      2.575006      2.135333
  H       1.863843      3.128142      2.420357
  H       1.216936      3.111946      0.791391
  C       2.774444      1.985318     -1.632073
  H       3.293571      1.322895     -2.181064
  H       2.976940      2.910258     -1.984587
  H       3.203936      1.947054     -0.680148
21
Coordinates from ORCA-job T_Q_Zero_triplet_min E -3015.206598101684
  Fe      0.560675      0.080434     -0.181622
  S       1.136267     -2.018419      0.242609
  S       1.707346      0.867103      1.590065
  S      -1.541325     -0.270401     -0.750515
  S       0.993996      1.597284     -1.738907
  C      -2.170483      0.973665     -1.909402
  H      -1.439903      1.171699     -2.694682
  H      -3.098558      0.620649     -2.375512
  H      -2.386668      1.910076     -1.392499
  C       0.349321     -3.105636     -0.966783
  H       0.549886     -4.141813     -0.674069
  H      -0.735937     -2.939284     -1.013139
  H       0.762229     -2.935117     -1.964790
  C       1.177908      2.588129      1.762676
  H       0.146422      2.618051      2.132199
  H       1.830097      3.099903      2.482511
  H       1.227674      3.121612      0.804631
  C       2.771412      1.922704     -1.680566
  H       3.285764      1.195317     -2.257386
  H       2.972969      2.884292     -2.093880
  H       3.203273      1.897366     -0.685090
21
Coordinates from ORCA-job T_Q_Zero_triplet_min E -3015.213663440189
  Fe      0.519687      0.096991     -0.148177
  S       1.098114     -1.976943      0.271769
  S       1.620894      0.842549      1.629991
  S      -1.577722     -0.215570     -0.692338
  S       0.971744      1.561677     -1.716309
  C      -2.182137      1.004121     -1.891184
  H      -1.470739      1.131403     -2.724098
  H      -3.143744      0.646499     -2.289558
  H      -2.342564      1.979021     -1.401728
  C       0.416185     -3.072247     -1.002454
  H       0.640856     -4.110561     -0.707922
  H      -0.669816     -2.933476     -1.095144
  H       0.881755     -2.870522     -1.979769
  C       1.161834      2.595161      1.771380
  H       0.113679      2.684480      2.089412
  H       1.803307      3.059276      2.536229
  H       1.290711      3.121216      0.813602
  C       2.762279      1.850546     -1.700756
  H       3.274785      1.054876     -2.257778
  H       2.963710      2.813833     -2.193852
  H       3.169547      1.875281     -0.675464
21
Coordinates from ORCA-job T_Q_Zero_triplet_min E -3015.216806927084
  Fe      0.515999      0.117004     -0.141502
  S       1.115344     -1.926402      0.269436
  S       1.561229      0.834191      1.640596
  S      -1.575816     -0.170286     -0.652922
  S       0.978348      1.522645     -1.725157
  C      -2.184305      1.037292     -1.865340
  H      -1.521765      1.095067     -2.748314
  H      -3.184523      0.698935     -2.176950
  H      -2.267542      2.037256     -1.402634
  C       0.468184     -3.026432     -1.025081
  H       0.732520     -4.059921     -0.743184
  H      -0.621965     -2.917965     -1.104337
  H       0.926346     -2.792904     -2.000034
  C       1.103506      2.591549      1.799583
  H       0.041202      2.686626      2.065207
  H       1.707988      3.017044      2.615537
  H       1.289691      3.136427      0.862731
  C       2.780568      1.771959     -1.744484
  H       3.285042      0.906057     -2.240691
  H       2.986461      2.699137     -2.336309
  H       3.165854      1.880338     -0.710300
21
Coordinates from ORCA-job T_Q_Zero_triplet_min E -3015.219131468459
  Fe      0.474467      0.114266     -0.116291
  S       1.096263     -1.897386      0.277250
  S       1.447594      0.807912      1.671222
  S      -1.612066     -0.133202     -0.592076
  S       0.956270      1.445745     -1.718992
  C      -2.216135      1.056170     -1.829438
  H      -1.605127      1.031562     -2.747336
  H      -3.248670      0.755505     -2.059802
  H      -2.214892      2.076733     -1.412714
  C       0.539398     -2.977184     -1.079976
  H       0.841362     -4.004969     -0.823594
  H      -0.551321     -2.909204     -1.184126
  H       1.017839     -2.687596     -2.027253
  C       1.112087      2.601358      1.758765
  H       0.042728      2.783699      1.929768
  H       1.675835      2.989044      2.620021
  H       1.421786      3.104271      0.832892
  C       2.763050      1.702454     -1.704726
  H       3.292181      0.790170     -2.097682
  H       2.975427      2.569905     -2.388660
  H       3.094288      1.918362     -0.671404
21
Coordinates from ORCA-job T_Q_Zero_triplet_min E -3015.220928054808
  Fe      0.535026      0.155858     -0.124003
  S       1.222180     -1.809181      0.232087
  S       1.421491      0.847827      1.660068
  S      -1.547100     -0.065364     -0.531960
  S       1.004479      1.393193     -1.761088
  C      -2.183298      1.113488     -1.769417
  H      -1.624224      1.042577     -2.711701
  H      -3.233102      0.834770     -1.932136
  H      -2.128564      2.140129     -1.385346
  C       0.591349     -2.891229     -1.095090
  H       0.941123     -3.908977     -0.874704
  H      -0.505283     -2.852225     -1.108780
  H       0.987001     -2.575521     -2.067822
  C       0.931737      2.601866      1.840420
  H      -0.149455      2.683300      2.006519
  H       1.454962      2.981499      2.728796
  H       1.208423      3.175699      0.948251
  C       2.828513      1.541679     -1.829806
  H       3.287819      0.582387     -2.185643
  H       3.054759      2.348441     -2.573243
  H       3.204531      1.797401     -0.829553
21
Coordinates from ORCA-job T_Q_Zero_triplet_min E -3015.222154041001
  Fe      0.490874      0.127435     -0.087249
  S       1.195455     -1.830136      0.232396
  S       1.338362      0.830799      1.699354
  S      -1.597536     -0.040549     -0.452757
  S       0.970132      1.301730     -1.753942
  C      -2.217782      1.087832     -1.746504
  H      -1.690051      0.922983     -2.689356
  H      -3.284304      0.863497     -1.871397
  H      -2.097317      2.129792     -1.439980
  C       0.625708     -2.858398     -1.163234
  H       0.988102     -3.877289     -0.984394
  H      -0.470379     -2.844030     -1.210423
  H       1.040268     -2.485535     -2.104144
  C       0.995916      2.625051      1.779174
  H      -0.081677      2.800300      1.876045
  H       1.502793      3.006345      2.675159
  H       1.371304      3.131165      0.883166
  C       2.788508      1.526499     -1.740401
  H       3.291351      0.581236     -1.988339
  H       3.026382      2.267257     -2.516482
  H       3.116255      1.871629     -0.760842
21
Coordinates from ORCA-job T_Q_Zero_triplet_min E -3015.222828810868
  Fe      0.532902      0.139929     -0.095965
  S       1.277388     -1.821934      0.173156
  S       1.380993      0.843076      1.707426
  S      -1.561589     -0.040556     -0.454690
  S       0.993162      1.354846     -1.751129
  C      -2.184492      1.059229     -1.769179
  H      -1.686645      0.842700     -2.720218
  H      -3.261753      0.871444     -1.864342
  H      -2.020888      2.108992     -1.505016
  C       0.571752     -2.863200     -1.146929
  H       0.965609     -3.878317     -1.008859
  H      -0.523185     -2.867908     -1.075912
  H       0.872704     -2.486985     -2.130594
  C       0.965363      2.617325      1.823211
  H      -0.119728      2.743118      1.920560
  H       1.455762      3.008303      2.724841
  H       1.320288      3.158784      0.938047
  C       2.811154      1.555309     -1.769287
  H       3.290379      0.604770     -2.002207
  H       3.052797      2.274537     -2.553551
  H       3.170391      1.914152     -0.803514
21
Coordinates from ORCA-job T_Q_Zero_triplet_min E -3015.223075325396
  Fe      0.553092      0.135827     -0.106147
  S       1.280710     -1.836157      0.193714
  S       1.430618      0.892123      1.673078
  S      -1.555715      0.012718     -0.421193
  S       1.025105      1.278867     -1.815928
  C      -2.177618      1.148241     -1.702620
  H      -1.732299      0.908546     -2.677309
  H      -3.267446      1.021342     -1.754419
  H      -1.945070      2.189373     -1.443923
  C       0.631357     -2.869884     -1.159853
  H       1.033063     -3.883815     -1.021572
  H      -0.465118     -2.890689     -1.125539
  H       0.957823     -2.478184     -2.131438
  C       0.854283      2.615674      1.836454
  H      -0.233640      2.635145      1.977724
  H       1.341898      3.043399      2.723593
  H       1.120163      3.202841      0.948020
  C       2.841118      1.471928     -1.829475
  H       3.315536      0.504866     -1.973487
  H       3.097865      2.124777     -2.663404
  H       3.196641      1.910675     -0.890425
21
Coordinates from ORCA-job T_Q_Zero_triplet_min E -3015.223640765855
  Fe      0.537854      0.162649     -0.058134
  S       1.320172     -1.799633      0.177568
  S       1.375589      0.914707      1.744861
  S      -1.575220      0.068110     -0.347392
  S       1.013311      1.299907     -1.770677
  C      -2.180852      1.140522     -1.687291
  H      -1.782005      0.806191     -2.656910
  H      -3.277372      1.070618     -1.697345
  H      -1.882953      2.184962     -1.513628
  C       0.690743     -2.797675     -1.211840
  H       1.132871     -3.801468     -1.123600
  H      -0.403325     -2.864203     -1.163092
  H       0.986128     -2.352174     -2.171469
  C       0.810990      2.644571      1.874503
  H      -0.280659      2.675172      1.981595
  H       1.276033      3.077466      2.771633
  H       1.110431      3.223051      0.990600
  C       2.834739      1.358622     -1.857341
  H       3.232010      0.353316     -1.982635
  H       3.106600      1.970664     -2.720360
  H       3.257280      1.802243     -0.943198
21
Coordinates from ORCA-job T_Q_Zero_triplet_min E -3015.223821129322
  Fe      0.560890      0.146982     -0.066697
  S       1.403438     -1.794415      0.091194
  S       1.364073      0.892577      1.748076
  S      -1.557356      0.117385     -0.284068
  S       1.033369      1.238089     -1.802574
  C      -2.158844      1.120749     -1.677319
  H      -1.807284      0.701798     -2.634575
  H      -3.257337      1.096031     -1.645929
  H      -1.809846      2.161752     -1.587209
  C       0.641992     -2.796892     -1.229032
  H       1.112438     -3.792031     -1.198437
  H      -0.437383     -2.889112     -1.054402
  H       0.816931     -2.340098     -2.213588
  C       0.807259      2.628194      1.844587
  H      -0.286676      2.669104      1.924229
  H       1.254812      3.064480      2.749555
  H       1.134890      3.196172      0.963829
  C       2.850871      1.399515     -1.815880
  H       3.316012      0.405083     -1.841013
  H       3.126232      1.969944     -2.718300
  H       3.193884      1.942308     -0.916595
21
Coordinates from ORCA-job T_Q_Zero_triplet_min E -3015.224127319661
  Fe      0.532340      0.167284     -0.027690
  S       1.353830     -1.785006      0.148730
  S       1.360589      0.924994      1.775931
  S      -1.589802      0.168885     -0.232038
  S       1.013680      1.232877     -1.781770
  C      -2.180539      1.126859     -1.662358
  H      -1.819637      0.681443     -2.600211
  H      -3.278387      1.100675     -1.642413
  H      -1.836701      2.168505     -1.602424
  C       0.712606     -2.738349     -1.267277
  H       1.168247     -3.737747     -1.222602
  H      -0.379102     -2.823926     -1.199292
  H       0.984252     -2.255884     -2.214718
  C       0.788281      2.654718      1.876254
  H      -0.304304      2.684939      1.970725
  H       1.243760      3.098319      2.772905
  H       1.097647      3.222621      0.990035
  C       2.836543      1.297012     -1.845911
  H       3.248143      0.280754     -1.883319
  H       3.117294      1.850923     -2.754772
  H       3.233625      1.817719     -0.961936
21
Coordinates from ORCA-job T_Q_Zero_triplet_min E -3015.224175572822
  Fe      0.529371      0.172108     -0.021740
  S       1.348270     -1.782825      0.156155
  S       1.371734      0.932583      1.777075
  S      -1.595348      0.195991     -0.212440
  S       1.013198      1.226325     -1.785134
  C      -2.183070      1.125694     -1.663388
  H      -1.819007      0.663752     -2.590540
  H      -3.280839      1.097956     -1.646661
  H      -1.842007      2.168138     -1.622403
  C       0.720589     -2.724743     -1.273338
  H       1.170276     -3.726399     -1.227946
  H      -0.372162     -2.806185     -1.219819
  H       1.006693     -2.238486     -2.214030
  C       0.783573      2.656159      1.888635
  H      -0.308629      2.675395      1.989416
  H       1.240487      3.100807      2.783935
  H       1.082251      3.229601      1.002520
  C       2.836654      1.280268     -1.854126
  H       3.244106      0.262595     -1.884411
  H       3.117944      1.823498     -2.767973
  H       3.238280      1.805382     -0.977940
21
Coordinates from ORCA-job T_Q_Zero_triplet_min E -3015.224208249569
  Fe      0.521879      0.169318     -0.018023
  S       1.355267     -1.780212      0.161657
  S       1.366028      0.935598      1.779576
  S      -1.604791      0.214971     -0.198075
  S       1.011185      1.211280     -1.790406
  C      -2.189390      1.141927     -1.653256
  H      -1.812774      0.686649     -2.577534
  H      -3.286856      1.101381     -1.645407
  H      -1.861101      2.187517     -1.606375
  C       0.742176     -2.715477     -1.278833
  H       1.190182     -3.717627     -1.231705
  H      -0.350941     -2.797587     -1.236746
  H       1.038793     -2.225509     -2.214001
  C       0.772342      2.657631      1.889872
  H      -0.320346      2.673821      1.984950
  H       1.224603      3.103209      2.787006
  H       1.073990      3.230416      1.004483
  C       2.835551      1.254419     -1.861965
  H       3.239764      0.234963     -1.887101
  H       3.117448      1.788049     -2.780604
  H       3.239357      1.782880     -0.991663
21
Coordinates from ORCA-job T_Q_Zero_triplet_min E -3015.224222802664
  Fe      0.519559      0.173300     -0.016485
  S       1.353096     -1.776182      0.163406
  S       1.376046      0.935104      1.777582
  S      -1.608280      0.238393     -0.187361
  S       1.009830      1.213263     -1.791679
  C      -2.189688      1.131435     -1.665366
  H      -1.815080      0.652339     -2.578499
  H      -3.287329      1.094481     -1.655158
  H      -1.857897      2.176905     -1.643042
  C       0.737374     -2.709362     -1.277895
  H       1.177998     -3.714838     -1.227613
  H      -0.356308     -2.784046     -1.238546
  H       1.040374     -2.222449     -2.212751
  C       0.779058      2.655380      1.901665
  H      -0.313112      2.668644      2.002918
  H       1.236061      3.096484      2.798573
  H       1.074502      3.232799      1.017123
  C       2.834369      1.258232     -1.863803
  H       3.240677      0.239495     -1.894259
  H       3.114114      1.794291     -2.781522
  H       3.237001      1.783949     -0.991441
21
Coordinates from ORCA-job T_Q_Zero_triplet_min E -3015.224233588908
  Fe      0.514171      0.169295     -0.016782
  S       1.356435     -1.775370      0.165419
  S       1.369227      0.931057      1.776979
  S      -1.613716      0.242145     -0.187505
  S       1.005686      1.210066     -1.791620
  C      -2.192013      1.137362     -1.665523
  H      -1.819709      0.656334     -2.579020
  H      -3.289805      1.104828     -1.654007
  H      -1.855520      2.181696     -1.642523
  C       0.745156     -2.711136     -1.276727
  H       1.186503     -3.716348     -1.224039
  H      -0.348510     -2.786953     -1.239938
  H       1.050302     -2.224596     -2.211287
  C       0.780099      2.654406      1.900007
  H      -0.312306      2.672899      1.997771
  H       1.237013      3.092848      2.798245
  H       1.081192      3.230006      1.016115
  C       2.830176      1.256282     -1.863434
  H       3.237280      0.238253     -1.898065
  H       3.108658      1.794907     -2.779785
  H       3.232047      1.779635     -0.988431
21
Coordinates from ORCA-job T_Q_Zero_triplet_min E -3015.224239592857
  Fe      0.509472      0.166689     -0.016076
  S       1.356361     -1.774948      0.167754
  S       1.364536      0.928201      1.776441
  S      -1.618246      0.248192     -0.186400
  S       1.001143      1.208882     -1.789888
  C      -2.193323      1.140093     -1.667403
  H      -1.831433      0.648052     -2.579616
  H      -3.291333      1.121262     -1.649897
  H      -1.843348      2.180447     -1.652828
  C       0.751687     -2.712097     -1.276744
  H       1.195143     -3.716393     -1.223245
  H      -0.341912     -2.790395     -1.243510
  H       1.058740     -2.224300     -2.210162
  C       0.781789      2.653702      1.900392
  H      -0.310613      2.676139      1.997383
  H       1.240058      3.089643      2.799145
  H       1.085703      3.228859      1.017134
  C       2.825301      1.255213     -1.862744
  H       3.231895      0.237355     -1.898176
  H       3.102861      1.794641     -2.778931
  H       3.227886      1.778377     -0.986778
21
Coordinates from ORCA-job T_Q_Zero_triplet_min E -3015.224241792124
  Fe      0.506980      0.165465     -0.015268
  S       1.354834     -1.775417      0.169583
  S       1.362969      0.927579      1.776004
  S      -1.620695      0.253082     -0.184775
  S       0.998617      1.208344     -1.788561
  C      -2.194122      1.141986     -1.667986
  H      -1.838829      0.642892     -2.578941
  H      -3.292158      1.131613     -1.647113
  H      -1.836072      2.179652     -1.659711
  C       0.755956     -2.712520     -1.277419
  H       1.201248     -3.715940     -1.223927
  H      -0.337578     -2.793048     -1.247388
  H       1.064525     -2.223217     -2.209536
  C       0.782143      2.653482      1.901060
  H      -0.310207      2.676992      1.998383
  H       1.241230      3.088439      2.799880
  H       1.086379      3.229113      1.018225
  C       2.822564      1.253627     -1.862760
  H       3.228218      0.235431     -1.896017
  H       3.100027      1.791767     -2.779883
  H       3.226338      1.778294     -0.988001
21
Coordinates from ORCA-job T_Q_Zero_triplet_min E -3015.224243141864
  Fe      0.505440      0.164703     -0.014644
  S       1.353050     -1.776254      0.170936
  S       1.362934      0.927797      1.775257
  S      -1.622274      0.258626     -0.182427
  S       0.997075      1.208032     -1.787533
  C      -2.194877      1.143723     -1.668037
  H      -1.843250      0.639634     -2.577509
  H      -3.292895      1.138034     -1.645604
  H      -1.832508      2.179813     -1.665019
  C       0.759124     -2.712951     -1.278252
  H       1.205942     -3.715617     -1.224857
  H      -0.334345     -2.795442     -1.250998
  H       1.068929     -2.222384     -2.209242
  C       0.782028      2.653291      1.901810
  H      -0.310274      2.676634      1.999699
  H       1.241540      3.087692      2.800698
  H       1.085686      3.229971      1.019468
  C       2.820893      1.252014     -1.863050
  H       3.225694      0.233336     -1.892922
  H       3.098589      1.788023     -2.781531
  H       3.225866      1.778941     -0.990393
21
Coordinates from ORCA-job T_Q_Zero_triplet_min E -3015.224243651204
  Fe      0.505298      0.164479     -0.014666
  S       1.352273     -1.776878      0.171179
  S       1.363710      0.928227      1.774534
  S      -1.622471      0.261755     -0.180851
  S       0.996978      1.208080     -1.787237
  C      -2.195255      1.144506     -1.667719
  H      -1.843112      0.639588     -2.576444
  H      -3.293281      1.138166     -1.645768
  H      -1.833629      2.180804     -1.666223
  C       0.759850     -2.713378     -1.278608
  H       1.206942     -3.715892     -1.225036
  H      -0.333612     -2.796372     -1.252319
  H       1.070167     -2.222681     -2.209336
  C       0.781803      2.653145      1.901972
  H      -0.310501      2.675868      2.000023
  H       1.241177      3.087423      2.801003
  H       1.084937      3.230592      1.019947
  C       2.820790      1.251521     -1.863216
  H       3.225405      0.232627     -1.891404
  H       3.098721      1.786464     -2.782313
  H       3.226176      1.779572     -0.991668
