21
Coordinates from ORCA-job Rubredoxin_zero_triplet_quintet_triplet_min
  Fe  0.50529835401403      0.16447870460554     -0.01466593422231
  S   1.35227264119260     -1.77687802879838      0.17117912874876
  S   1.36370993464843      0.92822721965535      1.77453372182367
  S   -1.62247097603144      0.26175556406265     -0.18085114119591
  S   0.99697763677773      1.20807960892881     -1.78723687520669
  C   -2.19525529514836      1.14450595271537     -1.66771858235531
  H   -1.84311176956253      0.63958740831856     -2.57644356031599
  H   -3.29328066879814      1.13816571756812     -1.64576800190632
  H   -1.83362864941328      2.18080426009623     -1.66622376049196
  C   0.75984978709736     -2.71337764786434     -1.27860803542399
  H   1.20694185790539     -3.71589137390127     -1.22503623978816
  H   -0.33361125610573     -2.79637196975141     -1.25231909944521
  H   1.07016725195866     -2.22268060192084     -2.20933625633982
  C   0.78180259334918      2.65314544152205      1.90197192135578
  H   -0.31050091558312      2.67586755030617      2.00002312594898
  H   1.24117683573765      3.08742318110238      2.80100359510498
  H   1.08493658450808      3.23059235403844      1.01994767124340
  C   2.82078980455288      1.25152029060564     -1.86321628781038
  H   3.22540441329841      0.23262619250984     -1.89140434026270
  H   3.09872055543642      1.78646328168251     -2.78231283157760
  H   3.22617632016676      1.77957213451556     -0.99166812788222
