21
Coordinates from ORCA-job T_Q_Zero_quintet_min
  Fe  0.71834650338908     -0.03008438966649     -0.26267943694904
  S   0.98869593656485     -2.12310802828409      0.36317114018018
  S   1.89144081637270      0.95010417089963      1.31648122666725
  S   -1.41167326815195     -0.22810154870033     -0.75468420905870
  S   1.26712465090472      1.10811413579490     -2.04978915865715
  C   -2.01467295332945      1.23571641132353     -1.65470012899995
  H   -1.49194951563751      1.33709227376844     -2.61479334128562
  H   -3.08720539135998      1.07997866568754     -1.83542417376809
  H   -1.87121180622350      2.14993079299377     -1.06670506565089
  C   0.33718406877024     -3.19013665433487     -0.96334783870013
  H   0.57945985505342     -4.22784399161685     -0.69806123907472
  H   -0.75207599567676     -3.07223188054122     -1.03542071751283
  H   0.79504078197135     -2.94005076816258     -1.92761965760111
  C   0.89097602277662      2.43229004304057      1.69082766789881
  H   -0.12620290940104      2.15000759603236      1.98768198495294
  H   1.37841110640850      2.95674676845599      2.52332648088947
  H   0.84856402831069      3.09764363767430      0.81872249081248
  C   2.85265637605000      1.97763927305735     -1.82231967899628
  H   3.62311008276220      1.29295898073374     -1.45103388422048
  H   3.14662396294883      2.36731281228127     -2.80674340777488
  H   2.73972268749798      2.81363693956002     -1.12103896315024
