21
Coordinates from ORCA-job T_Q_Zero E -3015.206930462380
  Fe      0.671003      0.013152     -0.207565
  S       1.069491     -2.046168      0.320506
  S       1.774167      0.945243      1.418271
  S      -1.458517     -0.119245     -0.627166
  S       1.207092      1.130329     -1.991444
  C      -2.054802      1.215447     -1.657593
  H      -1.569986      1.182091     -2.606271
  H      -3.133000      1.092909     -1.793278
  H      -1.862860      2.156792     -1.199931
  C       0.431110     -3.084190     -1.033406
  H       0.718900     -4.114077     -0.815167
  H      -0.659084     -3.010930     -1.083620
  H       0.856180     -2.780635     -1.990223
  C       0.866715      2.481369      1.737749
  H      -0.167158      2.266865      1.990424
  H       1.347915      2.985786      2.585032
  H       0.901091      3.127188      0.863439
  C       2.845575      1.816280     -1.831408
  H       3.534731      1.057330     -1.548894
  H       3.135979      2.238235     -2.801314
  H       2.847823      2.583845     -1.092290
21
Coordinates from ORCA-job T_Q_Zero E -3015.211510238232
  Fe      0.658781     -0.002145     -0.201876
  S       1.077826     -2.064315      0.308876
  S       1.746713      0.927884      1.437385
  S      -1.468181     -0.159384     -0.632631
  S       1.192160      1.142271     -1.969710
  C      -2.080144      1.210519     -1.637347
  H      -1.585623      1.210770     -2.614650
  H      -3.160714      1.070573     -1.777414
  H      -1.901117      2.169740     -1.142971
  C       0.436227     -3.099152     -1.047113
  H       0.734187     -4.134892     -0.837761
  H      -0.658443     -3.029883     -1.086785
  H       0.854516     -2.783347     -2.009726
  C       0.878040      2.505731      1.698809
  H      -0.177729      2.329145      1.933474
  H       1.355815      3.013991      2.547233
  H       0.954413      3.138129      0.805580
  C       2.857869      1.816242     -1.801646
  H       3.568646      1.025961     -1.546087
  H       3.138938      2.263438     -2.765540
  H       2.880183      2.586339     -1.024249
21
Coordinates from ORCA-job T_Q_Zero E -3015.213873803914
  Fe      0.606740     -0.004320     -0.164242
  S       1.060724     -2.070694      0.307915
  S       1.655506      0.911084      1.509941
  S      -1.511078     -0.198133     -0.629660
  S       1.143081      1.193054     -1.895774
  C      -2.135937      1.200880     -1.602304
  H      -1.629106      1.245297     -2.577190
  H      -3.211310      1.039748     -1.761023
  H      -1.984388      2.151605     -1.073990
  C       0.491586     -3.085995     -1.094829
  H       0.806995     -4.120583     -0.901689
  H      -0.602790     -3.038888     -1.170181
  H       0.935857     -2.735330     -2.034316
  C       0.901086      2.566129      1.644547
  H      -0.178551      2.483946      1.822003
  H       1.368713      3.076927      2.497136
  H       1.078981      3.147316      0.729587
  C       2.864627      1.753607     -1.755236
  H       3.540376      0.903876     -1.594805
  H       3.128038      2.255271     -2.696999
  H       2.973217      2.462816     -0.923041
21
Coordinates from ORCA-job T_Q_Zero E -3015.211813696536
  Fe      0.602576     -0.031739     -0.200057
  S       1.022846     -2.096659      0.324580
  S       1.659769      0.910631      1.456286
  S      -1.515435     -0.210987     -0.678097
  S       1.170183      1.123171     -1.951158
  C      -2.141190      1.260844     -1.554934
  H      -1.630525      1.378912     -2.524844
  H      -3.214237      1.101067     -1.729798
  H      -1.998480      2.175543     -0.959487
  C       0.511195     -3.132415     -1.086011
  H       0.815465     -4.165217     -0.865721
  H      -0.579069     -3.082048     -1.206548
  H       0.995880     -2.795610     -2.010959
  C       0.885282      2.560872      1.589639
  H      -0.189202      2.467604      1.795264
  H       1.367681      3.086872      2.424572
  H       1.032254      3.134030      0.663614
  C       2.868741      1.761342     -1.735380
  H       3.576416      0.942389     -1.538858
  H       3.147965      2.265216     -2.671105
  H       2.914249      2.483798     -0.905148
21
Coordinates from ORCA-job T_Q_Zero E -3015.212517639270
  Fe      0.632198      0.003522     -0.197844
  S       1.079339     -2.061676      0.306637
  S       1.703758      0.945023      1.450064
  S      -1.489851     -0.194628     -0.651004
  S       1.164144      1.176934     -1.947960
  C      -2.109702      1.228219     -1.605439
  H      -1.603798      1.287080     -2.580208
  H      -3.184532      1.066554     -1.764900
  H      -1.956982      2.170883     -1.063316
  C       0.477569     -3.097706     -1.067723
  H       0.795987     -4.129646     -0.867571
  H      -0.618013     -3.048589     -1.117247
  H       0.900774     -2.760875     -2.021799
  C       0.852376      2.546117      1.671971
  H      -0.203235      2.389352      1.926227
  H       1.347769      3.072863      2.498705
  H       0.922665      3.151287      0.758478
  C       2.887346      1.755686     -1.786969
  H       3.571721      0.911341     -1.635129
  H       3.145499      2.270074     -2.723034
  H       2.987335      2.455802     -0.946089
21
Coordinates from ORCA-job T_Q_Zero E -3015.212904618719
  Fe      0.616698     -0.013658     -0.184977
  S       1.066787     -2.083955      0.301196
  S       1.688121      0.914572      1.471186
  S      -1.504621     -0.212975     -0.643558
  S       1.148162      1.179138     -1.922310
  C      -2.112891      1.201028     -1.614198
  H      -1.603839      1.245143     -2.585300
  H      -3.188086      1.044075     -1.774539
  H      -1.955419      2.145510     -1.081614
  C       0.463838     -3.107427     -1.082110
  H       0.787419     -4.139661     -0.894363
  H      -0.631911     -3.063055     -1.126936
  H       0.881495     -2.758634     -2.033820
  C       0.912478      2.559450      1.629499
  H      -0.155155      2.460610      1.858402
  H       1.411878      3.082427      2.456081
  H       1.036855      3.134710      0.703279
  C       2.853321      1.790862     -1.728933
  H       3.547647      0.959734     -1.566349
  H       3.117898      2.312133     -2.659433
  H       2.921690      2.487588     -0.885353
21
Coordinates from ORCA-job T_Q_Zero E -3015.212709650641
  Fe      0.601068     -0.005585     -0.186669
  S       1.045412     -2.075108      0.316778
  S       1.665712      0.933116      1.469171
  S      -1.517574     -0.209361     -0.659787
  S       1.145975      1.178344     -1.926486
  C      -2.132804      1.235021     -1.581635
  H      -1.623588      1.314863     -2.550270
  H      -3.207089      1.076963     -1.747372
  H      -1.980247      2.160901     -1.016136
  C       0.509355     -3.101409     -1.091907
  H       0.834803     -4.131032     -0.892933
  H      -0.584025     -3.066986     -1.181143
  H       0.962160     -2.746594     -2.025133
  C       0.876903      2.571976      1.626713
  H      -0.188757      2.464409      1.861130
  H       1.376070      3.101064      2.449493
  H       0.991850      3.145246      0.697986
  C       2.872437      1.734979     -1.748018
  H       3.540952      0.880495     -1.598937
  H       3.142010      2.253498     -2.678626
  H       2.971742      2.422815     -0.900370
21
Coordinates from ORCA-job T_Q_Zero E -3015.212214776336
  Fe      0.609899     -0.004721     -0.198272
  S       1.056127     -2.075482      0.312312
  S       1.680530      0.942030      1.451034
  S      -1.508885     -0.218004     -0.672909
  S       1.152588      1.179684     -1.939436
  C      -2.124909      1.236617     -1.582826
  H      -1.616737      1.324478     -2.552524
  H      -3.199322      1.078391     -1.747964
  H      -1.971688      2.158370     -1.008878
  C       0.498460     -3.106679     -1.084629
  H       0.828249     -4.135577     -0.888122
  H      -0.596413     -3.073397     -1.155646
  H       0.935635     -2.753886     -2.026289
  C       0.868488      2.568606      1.628659
  H      -0.191272      2.443425      1.882103
  H       1.374252      3.102436      2.444315
  H       0.957459      3.146473      0.699575
  C       2.878754      1.742778     -1.749259
  H       3.549487      0.889128     -1.598219
  H       3.150417      2.263004     -2.678201
  H       2.971247      2.429940     -0.898975
21
Coordinates from ORCA-job T_Q_Zero E -3015.212131481845
  Fe      0.602700     -0.005315     -0.194064
  S       1.047387     -2.078929      0.315551
  S       1.678677      0.940262      1.453666
  S      -1.516165     -0.221359     -0.671381
  S       1.145029      1.183992     -1.932848
  C      -2.127917      1.232558     -1.584362
  H      -1.619685      1.315759     -2.554115
  H      -3.202975      1.077823     -1.748472
  H      -1.971072      2.154435     -1.012148
  C       0.501849     -3.105555     -1.089563
  H       0.834142     -4.134103     -0.895655
  H      -0.592686     -3.076219     -1.167038
  H       0.943195     -2.746997     -2.027008
  C       0.879113      2.573466      1.623729
  H      -0.181990      2.457376      1.875544
  H       1.387431      3.106374      2.438361
  H       0.974548      3.146495      0.692369
  C       2.871786      1.742138     -1.740261
  H       3.538235      0.886125     -1.585747
  H       3.147312      2.259198     -2.669817
  H       2.963449      2.430090     -0.890891
21
Coordinates from ORCA-job T_Q_Zero E -3015.211897940868
  Fe      0.599151     -0.005661     -0.192786
  S       1.044830     -2.083349      0.316325
  S       1.678937      0.939977      1.454603
  S      -1.517854     -0.233304     -0.680756
  S       1.141445      1.194291     -1.926097
  C      -2.131042      1.224172     -1.585523
  H      -1.620945      1.313481     -2.553603
  H      -3.205677      1.069822     -1.752712
  H      -1.976587      2.142134     -1.006702
  C       0.498842     -3.104878     -1.092217
  H       0.834346     -4.133325     -0.903396
  H      -0.595974     -3.078837     -1.167193
  H       0.936708     -2.741282     -2.029274
  C       0.889696      2.578493      1.617594
  H      -0.173212      2.470282      1.864953
  H       1.397806      3.110113      2.433170
  H       0.993332      3.148002      0.684979
  C       2.868826      1.745976     -1.730733
  H       3.530166      0.887089     -1.571654
  H       3.150090      2.259177     -2.660676
  H       2.959479      2.435243     -0.882451
21
Coordinates from ORCA-job T_Q_Zero E -3015.211775527073
  Fe      0.594906     -0.003573     -0.187325
  S       1.035386     -2.083537      0.322880
  S       1.685598      0.939779      1.454836
  S      -1.523606     -0.229020     -0.672384
  S       1.134711      1.196574     -1.922129
  C      -2.131736      1.219406     -1.594518
  H      -1.619731      1.296670     -2.562957
  H      -3.206574      1.066908     -1.762299
  H      -1.976086      2.143829     -1.025871
  C       0.499692     -3.101307     -1.092184
  H       0.832720     -4.130550     -0.902928
  H      -0.594502     -3.074268     -1.175969
  H       0.945215     -2.736245     -2.025088
  C       0.897187      2.577866      1.625857
  H      -0.164581      2.469498      1.878252
  H       1.409207      3.107695      2.440179
  H       0.996256      3.149867      0.694171
  C       2.863197      1.746183     -1.732794
  H       3.524799      0.886703     -1.576429
  H       3.142523      2.259866     -2.663063
  H       2.957786      2.435270     -0.884388
21
Coordinates from ORCA-job T_Q_Zero E -3015.211729896900
  Fe      0.595939     -0.003261     -0.186563
  S       1.034554     -2.083674      0.325079
  S       1.688023      0.938331      1.455663
  S      -1.521665     -0.230314     -0.675631
  S       1.136492      1.198114     -1.920887
  C      -2.133339      1.216156     -1.597788
  H      -1.617273      1.298618     -2.563788
  H      -3.206557      1.059054     -1.771739
  H      -1.985848      2.140887     -1.027232
  C       0.496318     -3.100848     -1.089208
  H       0.825473     -4.131133     -0.898669
  H      -0.597707     -3.069938     -1.174152
  H       0.943919     -2.738558     -2.022224
  C       0.899756      2.576212      1.628824
  H      -0.162245      2.468140      1.880400
  H       1.411232      3.104895      2.444278
  H       0.999426      3.150218      0.698393
  C       2.864471      1.749528     -1.735370
  H       3.529269      0.891293     -1.585118
  H       3.140466      2.268343     -2.663829
  H       2.961660      2.435554     -0.884589
21
Coordinates from ORCA-job T_Q_Zero E -3015.211719146841
  Fe      0.596583     -0.003625     -0.186107
  S       1.032869     -2.083861      0.327227
  S       1.690007      0.935297      1.456275
  S      -1.520225     -0.230381     -0.678241
  S       1.138103      1.197787     -1.920367
  C      -2.134443      1.213971     -1.601626
  H      -1.614202      1.300970     -2.564990
  H      -3.205920      1.051722     -1.781540
  H      -1.994912      2.139176     -1.029811
  C       0.492963     -3.101605     -1.085856
  H       0.818068     -4.132773     -0.893156
  H      -0.600795     -3.066583     -1.172649
  H       0.943401     -2.742727     -2.018851
  C       0.903491      2.573868      1.630645
  H      -0.158360      2.467071      1.883390
  H       1.416362      3.101892      2.445688
  H       1.002491      3.148532      0.700545
  C       2.864445      1.754328     -1.736490
  H       3.533896      0.898506     -1.593085
  H       3.135986      2.279760     -2.662593
  H       2.962557      2.436288     -0.882557
21
Coordinates from ORCA-job T_Q_Zero E -3015.211832116834
  Fe      0.596357     -0.003565     -0.186102
  S       1.031720     -2.083588      0.328192
  S       1.690765      0.933456      1.456352
  S      -1.519868     -0.230516     -0.680215
  S       1.138144      1.198388     -1.919961
  C      -2.134828      1.213137     -1.604137
  H      -1.612758      1.302078     -2.566278
  H      -3.205506      1.048297     -1.786388
  H      -1.998572      2.138338     -1.031612
  C       0.491563     -3.102190     -1.084172
  H       0.815305     -4.133554     -0.890308
  H      -0.602074     -3.065718     -1.171801
  H       0.943211     -2.744797     -2.017160
  C       0.905913      2.572755      1.631401
  H      -0.155485      2.466891      1.886411
  H       1.420924      3.100707      2.445143
  H       1.003283      3.146957      0.700862
  C       2.863834      1.756889     -1.736258
  H       3.534883      0.901776     -1.596307
  H       3.133117      2.285429     -2.661264
  H       2.962434      2.436444     -0.880547
