21
Coordinates from ORCA-job Rubredoxin_zero_triplet_quintet
  Fe  0.59626810520584     -0.00355878225083     -0.18607970946147
  S   1.03169017995945     -2.08358335352958      0.32817893631443
  S   1.69059412709344      0.93353259919990      1.45639755125525
  S   -1.51996065578475     -0.23051864726224     -0.68017731174410
  S   1.13806764555763      1.19840107958931     -1.91992307421866
  C   -2.13488876184873      1.21325824143292     -1.60394301632981
  H   -1.61283532848416      1.30226115323998     -2.56608850864589
  H   -3.20557735891731      1.04847111288017     -1.78617980101520
  H   -1.99857802599960      2.13839314711158     -1.03132546602129
  C   0.49177882530149     -3.10216189684186     -1.08430023658207
  H   0.81558397935551     -4.13350805147792     -0.89045194722333
  H   -0.60185227889164     -3.06577993550059     -1.17204411673407
  H   0.94349699469605     -2.74468138794620     -2.01722017530710
  C   0.90579276698776      2.57287460047136      1.63129779094006
  H   -0.15563132181371      2.46706189938612      1.88622253353694
  H   1.42075658565940      3.10084891859621      2.44505492456409
  H   1.00326761400491      3.14701630033878      0.70073320809564
  C   2.86385832258652      1.75662502063592     -1.73623647448534
  H   3.53475051670135      0.90139613885280     -1.59623944719492
  H   3.13322931093928      2.28506613790042     -2.66127240726319
  H   2.96255379769228      2.43620094517273     -0.88055316247596
