28
File written by ORCA
C     0.000000    0.000000    0.000000
C     0.000000    0.000000    0.000000
C     0.000000    0.000000    0.000000
C     0.000000    0.000000    0.000000
C     0.000000    0.000000    0.000000
C     0.000000    0.000000    0.000000
C     0.000000    0.000000    0.000000
C     0.000000    0.000000    0.000000
C     0.000000    0.000000    0.000000
C     0.000000    0.000000    0.000000
H     0.000000    0.000000    0.000000
H     0.000000    0.000000    0.000000
H     0.000000    0.000000    0.000000
H     0.000000    0.000000    0.000000
H     0.000000    0.000000    0.000000
H     0.000000    0.000000    0.000000
H     0.000000    0.000000    0.000000
H     0.000000    0.000000    0.000000
N     0.000000    0.000000    0.000000
N     0.000000    0.000000    0.000000
Mn    0.000000    0.000000    0.000000
C     0.000000    0.000000    0.000000
C     0.000000    0.000000    0.000000
C     0.000000    0.000000    0.000000
Br    0.000000    0.000000    0.000000
O     0.000000    0.000000    0.000000
O     0.000000    0.000000    0.000000
O     0.000000    0.000000    0.000000
