21
Coordinates from ORCA-job Rubredoxin_minus2_singlet_quintet_quintet_min
  Fe  0.50211518229476      0.02148839078925      0.00337818619693
  S   1.42998033548200     -2.11969769606453      0.06674936715263
  S   1.26399245644109      1.22269829557839      1.87161109506165
  S   -1.84379035373570     -0.24551774131353     -0.22252051307939
  S   1.27086043082272      1.19891593900602     -1.89172940526358
  C   -2.36621003342949      1.09080996237869     -1.36881588495071
  H   -1.67819318266492      1.16322923292203     -2.22475444487688
  H   -3.38569518791851      0.89305086400491     -1.75043753591498
  H   -2.37594568202305      2.07281627278128     -0.86684878472098
  C   0.70823058423440     -2.91924410232127     -1.42256571066363
  H   0.92911388869034     -4.00314042454540     -1.43083010389193
  H   -0.38309115841711     -2.76973697170160     -1.43570009877498
  H   1.11909128246150     -2.46854782099591     -2.34068114051791
  C   0.74885022893834      2.94697705028599      1.49781877047127
  H   -0.32484837702328      3.09509919737648      1.70496169168591
  H   1.31992659975334      3.66698682330566      2.11303290695576
  H   0.92284084546054      3.16431712060406      0.43123000641363
  C   3.07836381627880      1.27398516750861     -1.57850181915480
  H   3.51384392395765      0.26202682635741     -1.60612953428706
  H   3.58280273002689      1.90118478464541     -2.33693758186672
  H   3.27012671037065      1.68991406939504     -0.57647937597321
