21
Coordinates from ORCA-job Rubredoxin_minus2_singlet_quintet_singlet_min
  Fe  0.46564822838024      0.04403025413965     -0.01324571639941
  S   1.67277498509442     -1.80469454849151      0.21658264581945
  S   1.43742179324173      0.99964196032682      1.69565309299164
  S   -1.68364776018512      0.32329850788114     -0.22229902169953
  S   0.98871757511754      1.21689875475560     -1.78199742091070
  C   -2.34991789155218      1.47409447755381     -1.51925096025024
  H   -1.70831471148972      1.42838746912985     -2.41447837284103
  H   -3.38328656030695      1.18822273102101     -1.79355179240647
  H   -2.35681997835839      2.51823984341151     -1.15783132547356
  C   1.07808628506286     -2.80938271585397     -1.21418771667025
  H   1.31024205294512     -3.88090252992921     -1.05367276088387
  H   -0.01030004873522     -2.68942792861598     -1.33565318742022
  H   1.55897705468661     -2.48359972219707     -2.15261223398678
  C   0.60197907892391      2.64089978825513      1.83597508773771
  H   -0.48356962024469      2.50995857353084      1.96850224104137
  H   1.01584823865698      3.20081053438238      2.69881096681306
  H   0.76562435956834      3.21998988239076      0.91449745136334
  C   2.81444713530020      1.03549783973370     -1.98093375328332
  H   3.09143290976292     -0.01771727906464     -2.14334038033923
  H   3.15600501412814      1.64127297810342     -2.84331978747638
  H   3.32101690000424      1.38209636953375     -1.06779696572455
