21
Coordinates from ORCA-job Rubredoxin_minus2_singlet_quintet_singlet_min E -3015.069088778865
  Fe      0.605036      0.063883     -0.216844
  S       1.173998     -2.065766      0.206381
  S       1.807018      0.901254      1.542614
  S      -1.505391     -0.338044     -0.802687
  S       1.024275      1.635844     -1.762702
  C      -2.181416      0.901271     -1.939798
  H      -1.485234      1.133361     -2.658451
  H      -3.071094      0.576022     -2.440543
  H      -2.420118      1.774124     -1.448695
  C       0.279116     -3.098633     -0.953258
  H       0.436371     -4.106648     -0.695699
  H      -0.797787     -2.896649     -0.957110
  H       0.630820     -2.945209     -1.928884
  C       1.238917      2.590258      1.729808
  H       0.239438      2.574885      2.128304
  H       1.880754      3.144055      2.394518
  H       1.230984      3.110903      0.789753
  C       2.779990      1.993962     -1.611803
  H       3.253224      1.400832     -2.107028
  H       2.980404      2.835320     -1.921922
  H       3.203059      1.952588     -0.710104
21
Coordinates from ORCA-job Rubredoxin_minus2_singlet_quintet_singlet_min E -3015.136473562100
  Fe      0.596118      0.063843     -0.206897
  S       1.174235     -2.060290      0.221558
  S       1.801587      0.883573      1.553501
  S      -1.515975     -0.317754     -0.795152
  S       1.012166      1.629415     -1.756176
  C      -2.193420      0.922498     -1.942911
  H      -1.476904      1.153259     -2.688837
  H      -3.098891      0.585965     -2.442307
  H      -2.433719      1.825565     -1.439081
  C       0.292302     -3.116509     -0.945231
  H       0.461682     -4.143469     -0.675622
  H      -0.788244     -2.922035     -0.953774
  H       0.653082     -2.961154     -1.942305
  C       1.229151      2.583282      1.742440
  H       0.217583      2.576106      2.141849
  H       1.878505      3.138487      2.418866
  H       1.223421      3.108485      0.791891
  C       2.778844      1.992072     -1.625397
  H       3.297303      1.330749     -2.174337
  H       2.986808      2.917220     -1.972716
  H       3.206731      1.948308     -0.673513
21
Coordinates from ORCA-job Rubredoxin_minus2_singlet_quintet_singlet_min E -3015.159122041347
  Fe      0.568025      0.085952     -0.163258
  S       1.156915     -2.027879      0.272953
  S       1.803135      0.865862      1.583613
  S      -1.554289     -0.240902     -0.734855
  S       0.979760      1.633133     -1.722603
  C      -2.215893      0.948507     -1.963746
  H      -1.484591      1.110825     -2.758277
  H      -3.153735      0.588868     -2.426175
  H      -2.425759      1.917984     -1.503063
  C       0.341355     -3.105954     -0.951809
  H       0.525537     -4.156100     -0.679756
  H      -0.743421     -2.926636     -0.997929
  H       0.742319     -2.929562     -1.957424
  C       1.216290      2.578626      1.798975
  H       0.190631      2.579278      2.200589
  H       1.874111      3.125706      2.497996
  H       1.207699      3.118487      0.841711
  C       2.777110      1.945209     -1.678422
  H       3.284853      1.218184     -2.260835
  H       3.000157      2.909475     -2.076455
  H       3.212157      1.898553     -0.685378
21
Coordinates from ORCA-job Rubredoxin_minus2_singlet_quintet_singlet_min E -3015.165034226633
  Fe      0.537096      0.118306     -0.112175
  S       1.131510     -1.985360      0.323310
  S       1.819918      0.857015      1.604792
  S      -1.599551     -0.137277     -0.644653
  S       0.943898      1.643803     -1.682404
  C      -2.235354      0.939041     -1.997633
  H      -1.510017      0.973479     -2.828947
  H      -3.204642      0.565448     -2.389933
  H      -2.386828      1.975041     -1.644499
  C       0.386427     -3.052796     -0.972717
  H       0.568422     -4.115592     -0.716240
  H      -0.696031     -2.873521     -1.062340
  H       0.834059     -2.848347     -1.961881
  C       1.221445      2.572853      1.866517
  H       0.192652      2.572247      2.270661
  H       1.882644      3.100926      2.583662
  H       1.206852      3.130732      0.916556
  C       2.763420      1.888350     -1.721511
  H       3.243335      1.098710     -2.308422
  H       3.005899      2.858810     -2.176652
  H       3.197211      1.855749     -0.709640
21
Coordinates from ORCA-job Rubredoxin_minus2_singlet_quintet_singlet_min E -3015.166924742945
  Fe      0.517490      0.150610     -0.077623
  S       1.111571     -1.945290      0.348908
  S       1.853715      0.856402      1.600012
  S      -1.632458     -0.030010     -0.558938
  S       0.922114      1.649852     -1.662663
  C      -2.250154      0.897387     -2.031431
  H      -1.547383      0.782485     -2.877352
  H      -3.249655      0.527363     -2.340627
  H      -2.332670      1.979599     -1.814710
  C       0.404280     -2.984652     -0.998153
  H       0.570120     -4.055803     -0.761998
  H      -0.672709     -2.787931     -1.113958
  H       0.886036     -2.759554     -1.967125
  C       1.240776      2.562443      1.925409
  H       0.210951      2.545334      2.326703
  H       1.897942      3.065314      2.664331
  H       1.223638      3.148368      0.992911
  C       2.751378      1.853498     -1.741818
  H       3.218911      1.006766     -2.284398
  H       3.006356      2.797933     -2.270970
  H       3.172117      1.877501     -0.720658
21
Coordinates from ORCA-job Rubredoxin_minus2_singlet_quintet_singlet_min E -3015.167809202643
  Fe      0.533545      0.150471     -0.083060
  S       1.183641     -1.920086      0.311716
  S       1.886512      0.838343      1.572116
  S      -1.615412      0.013408     -0.539433
  S       0.924792      1.634392     -1.670571
  C      -2.257302      0.874044     -2.049152
  H      -1.573829      0.708280     -2.903214
  H      -3.267564      0.495697     -2.304892
  H      -2.320174      1.968355     -1.887995
  C       0.386128     -2.952346     -0.997335
  H       0.543027     -4.028582     -0.774465
  H      -0.690311     -2.725508     -1.045535
  H       0.819559     -2.731112     -1.989486
  C       1.250028      2.534150      1.936160
  H       0.200692      2.503552      2.281414
  H       1.867227      3.004600      2.728917
  H       1.279951      3.150533      1.023753
  C       2.757042      1.870414     -1.733756
  H       3.264855      0.968817     -2.165943
  H       3.004704      2.761301     -2.372236
  H       3.125256      2.018893     -0.701152
21
Coordinates from ORCA-job Rubredoxin_minus2_singlet_quintet_singlet_min E -3015.168597003203
  Fe      0.482960      0.182570     -0.018217
  S       1.142007     -1.874540      0.360780
  S       1.854383      0.860635      1.613590
  S      -1.663932      0.118025     -0.458735
  S       0.901967      1.620530     -1.627979
  C      -2.294694      0.873638     -2.031525
  H      -1.635351      0.605791     -2.872390
  H      -3.322295      0.518325     -2.232027
  H      -2.306342      1.975559     -1.966926
  C       0.484525     -2.855403     -1.061649
  H       0.622313     -3.938158     -0.873055
  H      -0.581750     -2.621412     -1.199914
  H       1.013608     -2.589261     -1.990331
  C       1.227430      2.558337      1.985629
  H       0.168200      2.532060      2.292261
  H       1.822278      3.006850      2.805138
  H       1.296961      3.186538      1.084546
  C       2.742795      1.731223     -1.771089
  H       3.170988      0.778467     -2.165724
  H       3.020015      2.560613     -2.469477
  H       3.156298      1.907227     -0.767055
21
Coordinates from ORCA-job Rubredoxin_minus2_singlet_quintet_singlet_min E -3015.169486599054
  Fe      0.500958      0.179265     -0.031228
  S       1.210777     -1.852524      0.319770
  S       1.879397      0.882771      1.573076
  S      -1.642804      0.148330     -0.445813
  S       0.920708      1.568296     -1.671406
  C      -2.295650      0.889402     -2.019621
  H      -1.647538      0.613414     -2.862893
  H      -3.324073      0.528944     -2.198531
  H      -2.308502      1.989399     -1.965857
  C       0.482136     -2.843894     -1.060714
  H       0.629340     -3.925093     -0.877034
  H      -0.589224     -2.609160     -1.139763
  H       0.963624     -2.578571     -2.013161
  C       1.197421      2.547701      1.988414
  H       0.135216      2.474006      2.272158
  H       1.764298      2.987420      2.831514
  H       1.263917      3.207851      1.110337
  C       2.761269      1.716080     -1.776471
  H       3.211627      0.759415     -2.103862
  H       3.035074      2.502330     -2.511206
  H       3.154390      1.952234     -0.781860
21
Coordinates from ORCA-job Rubredoxin_minus2_singlet_quintet_singlet_min E -3015.170123563402
  Fe      0.475736      0.143329      0.008512
  S       1.310587     -1.834455      0.264670
  S       1.788371      0.872917      1.641566
  S      -1.649528      0.118541     -0.432747
  S       0.912511      1.517009     -1.623082
  C      -2.314930      0.948032     -1.961525
  H      -1.650053      0.748820     -2.813146
  H      -3.329208      0.564805     -2.171230
  H      -2.364637      2.040248     -1.831026
  C       0.556563     -2.825733     -1.106028
  H       0.737863     -3.906667     -0.950677
  H      -0.522451     -2.617542     -1.136168
  H       0.996834     -2.527012     -2.068381
  C       1.154731      2.583058      1.930752
  H       0.071118      2.560008      2.127078
  H       1.672772      3.037172      2.797918
  H       1.321763      3.203990      1.036723
  C       2.755006      1.620022     -1.749508
  H       3.168011      0.653345     -2.060620
  H       3.035601      2.377361     -2.498043
  H       3.175705      1.860368     -0.769189
21
Coordinates from ORCA-job Rubredoxin_minus2_singlet_quintet_singlet_min E -3015.170459308140
  Fe      0.486181      0.141728     -0.004519
  S       1.333767     -1.824936      0.250958
  S       1.812685      0.915803      1.594126
  S      -1.642573      0.157261     -0.406214
  S       0.938045      1.429435     -1.696718
  C      -2.320206      1.002417     -1.921809
  H      -1.649551      0.824692     -2.777091
  H      -3.329520      0.607862     -2.141893
  H      -2.386772      2.093041     -1.770725
  C       0.584604     -2.831928     -1.113691
  H       0.745472     -3.913321     -0.931784
  H      -0.490914     -2.610656     -1.170211
  H       1.047243     -2.561288     -2.076028
  C       1.097392      2.582649      1.938669
  H       0.025487      2.492518      2.180525
  H       1.626550      3.054219      2.791043
  H       1.189010      3.229433      1.051705
  C       2.779460      1.572255     -1.778246
  H       3.219852      0.600855     -2.016882
  H       3.061079      2.289646     -2.560935
  H       3.175073      1.885930     -0.804428
21
Coordinates from ORCA-job Rubredoxin_minus2_singlet_quintet_singlet_min E -3015.170769494107
  Fe      0.520784      0.195160     -0.003915
  S       1.404660     -1.765943      0.168823
  S       1.835588      0.969097      1.607990
  S      -1.614110      0.220816     -0.369351
  S       0.972042      1.481656     -1.699335
  C      -2.291080      0.960100     -1.937794
  H      -1.604162      0.744435     -2.774870
  H      -3.290095      0.534411     -2.154056
  H      -2.382432      2.057647     -1.848843
  C       0.546483     -2.793232     -1.115215
  H       0.713822     -3.871589     -0.916924
  H      -0.530737     -2.571493     -1.104672
  H       0.938719     -2.552532     -2.118201
  C       1.051810      2.585872      2.028598
  H      -0.009189      2.436836      2.293434
  H       1.579588      3.053177      2.885203
  H       1.089608      3.271173      1.167047
  C       2.811902      1.540478     -1.846667
  H       3.196795      0.552440     -2.112252
  H       3.096513      2.259359     -2.627396
  H       3.265855      1.829747     -0.885753
21
Coordinates from ORCA-job Rubredoxin_minus2_singlet_quintet_singlet_min E -3015.171269423318
  Fe      0.466804      0.161318      0.042351
  S       1.379488     -1.795469      0.154222
  S       1.753185      0.936935      1.681067
  S      -1.672468      0.218323     -0.303955
  S       0.959401      1.416964     -1.668653
  C      -2.341376      0.963549     -1.871310
  H      -1.617798      0.801718     -2.693597
  H      -3.312343      0.500152     -2.138403
  H      -2.488784      2.055124     -1.755518
  C       0.595191     -2.788337     -1.204507
  H       0.766325     -3.870031     -1.023317
  H      -0.485241     -2.585378     -1.249679
  H       1.032892     -2.521786     -2.184600
  C       1.087925      2.639768      1.938591
  H       0.003322      2.606563      2.145460
  H       1.603315      3.121973      2.795077
  H       1.236978      3.257362      1.038609
  C       2.801673      1.492361     -1.755224
  H       3.213960      0.491000     -1.966987
  H       3.104814      2.196539     -2.556201
  H       3.215100      1.838966     -0.787576
21
Coordinates from ORCA-job Rubredoxin_minus2_singlet_quintet_singlet_min E -3015.171466360289
  Fe      0.469786      0.173460      0.050571
  S       1.439454     -1.754042      0.170576
  S       1.720314      0.990406      1.695601
  S      -1.667727      0.214464     -0.304786
  S       0.977923      1.384198     -1.686967
  C      -2.353893      1.074675     -1.805552
  H      -1.602041      1.051799     -2.614542
  H      -3.281776      0.577870     -2.150020
  H      -2.581505      2.134025     -1.582733
  C       0.706925     -2.756565     -1.208619
  H       0.923501     -3.831510     -1.043012
  H      -0.381077     -2.598442     -1.254505
  H       1.136568     -2.457097     -2.181039
  C       0.969185      2.655578      1.964427
  H      -0.116632      2.572200      2.143350
  H       1.440895      3.144245      2.840852
  H       1.112414      3.293077      1.077541
  C       2.816526      1.325315     -1.846061
  H       3.152496      0.288382     -2.038282
  H       3.136571      1.983187     -2.684026
  H       3.284459      1.672390     -0.906923
21
Coordinates from ORCA-job Rubredoxin_minus2_singlet_quintet_singlet_min E -3015.171694757192
  Fe      0.462251      0.177422      0.062065
  S       1.451982     -1.741779      0.145128
  S       1.714410      0.983339      1.710074
  S      -1.677182      0.244897     -0.276845
  S       0.983064      1.376747     -1.679425
  C      -2.366981      1.047504     -1.807591
  H      -1.606231      1.018189     -2.603309
  H      -3.278675      0.521516     -2.148584
  H      -2.621010      2.104969     -1.619110
  C       0.696492     -2.727498     -1.229512
  H       0.942356     -3.799326     -1.097759
  H      -0.395617     -2.592456     -1.231283
  H       1.084441     -2.394821     -2.206077
  C       0.987962      2.661184      1.953581
  H      -0.100666      2.596073      2.114099
  H       1.453734      3.148882      2.832766
  H       1.157769      3.287488      1.063357
  C       2.822336      1.316020     -1.816382
  H       3.158488      0.281321     -1.991982
  H       3.152780      1.959591     -2.656229
  H       3.280662      1.668352     -0.881132
21
Coordinates from ORCA-job Rubredoxin_minus2_singlet_quintet_singlet_min E -3015.171824480768
  Fe      0.462050      0.180477      0.062769
  S       1.461114     -1.742603      0.129079
  S       1.710821      0.978802      1.720212
  S      -1.683097      0.257685     -0.266317
  S       0.992579      1.372982     -1.686297
  C      -2.374212      1.037852     -1.806788
  H      -1.594170      1.045287     -2.583190
  H      -3.253501      0.475461     -2.173884
  H      -2.680616      2.081570     -1.620674
  C       0.683195     -2.720528     -1.234220
  H       0.962316     -3.787313     -1.132349
  H      -0.411646     -2.615459     -1.193514
  H       1.024358     -2.358398     -2.216972
  C       0.997267      2.663506      1.944596
  H      -0.092406      2.609402      2.100766
  H       1.463892      3.156543      2.820544
  H       1.176815      3.276906      1.047504
  C       2.832446      1.315975     -1.801852
  H       3.174132      0.283416     -1.972198
  H       3.172756      1.957632     -2.638350
  H       3.278270      1.668421     -0.863015
21
Coordinates from ORCA-job Rubredoxin_minus2_singlet_quintet_singlet_min E -3015.171917545121
  Fe      0.464396      0.183929      0.064799
  S       1.482857     -1.738316      0.116931
  S       1.706946      0.981675      1.728369
  S      -1.686298      0.278655     -0.253099
  S       1.005410      1.354175     -1.701979
  C      -2.383812      1.044839     -1.797582
  H      -1.583986      1.109818     -2.551851
  H      -3.217793      0.437992     -2.198922
  H      -2.759431      2.065462     -1.604085
  C       0.684751     -2.706634     -1.238869
  H       0.996184     -3.767927     -1.172714
  H      -0.410546     -2.633227     -1.157766
  H       0.979320     -2.310424     -2.223544
  C       0.989445      2.666502      1.940320
  H      -0.100872      2.611782      2.093122
  H       1.453168      3.167483      2.813864
  H       1.171238      3.270349      1.037515
  C       2.845768      1.291252     -1.800615
  H       3.188365      0.256240     -1.954544
  H       3.196487      1.920072     -2.643087
  H       3.280765      1.653917     -0.860413
21
Coordinates from ORCA-job Rubredoxin_minus2_singlet_quintet_singlet_min E -3015.171955649502
  Fe      0.465017      0.180839      0.066457
  S       1.487988     -1.744857      0.123155
  S       1.704029      0.980494      1.731278
  S      -1.688023      0.283045     -0.251568
  S       1.006946      1.339500     -1.711370
  C      -2.386461      1.053575     -1.793796
  H      -1.580124      1.146186     -2.539323
  H      -3.200436      0.430733     -2.211686
  H      -2.791026      2.062327     -1.591550
  C       0.688660     -2.704965     -1.237813
  H       1.005177     -3.766074     -1.185359
  H      -0.406739     -2.638076     -1.152378
  H       0.976986     -2.294663     -2.218906
  C       0.986415      2.666949      1.938293
  H      -0.103737      2.611737      2.092896
  H       1.451450      3.172862      2.808535
  H       1.166471      3.265370      1.031700
  C       2.847983      1.283179     -1.803198
  H       3.195520      0.248453     -1.946900
  H       3.199455      1.905183     -2.650069
  H       3.276817      1.655819     -0.862548
21
Coordinates from ORCA-job Rubredoxin_minus2_singlet_quintet_singlet_min E -3015.171979870978
  Fe      0.464109      0.177099      0.071404
  S       1.498936     -1.745798      0.128874
  S       1.695345      0.983182      1.735960
  S      -1.689167      0.289636     -0.247110
  S       1.006828      1.320174     -1.717859
  C      -2.389129      1.068929     -1.785105
  H      -1.581225      1.178714     -2.527181
  H      -3.192314      0.438531     -2.212346
  H      -2.809114      2.069870     -1.573354
  C       0.704424     -2.699068     -1.241185
  H       1.021707     -3.760637     -1.197438
  H      -0.391430     -2.635042     -1.159862
  H       0.995813     -2.278707     -2.217341
  C       0.974234      2.670038      1.939605
  H      -0.116030      2.611826      2.091959
  H       1.436419      3.179049      2.809513
  H       1.154801      3.267059      1.032226
  C       2.847984      1.260982     -1.811484
  H       3.193743      0.223636     -1.938788
  H       3.198254      1.869074     -2.668448
  H       3.278175      1.649068     -0.876188
21
Coordinates from ORCA-job Rubredoxin_minus2_singlet_quintet_singlet_min E -3015.171995598059
  Fe      0.462788      0.172310      0.073652
  S       1.503486     -1.750215      0.136225
  S       1.686858      0.982029      1.738279
  S      -1.689999      0.290537     -0.248173
  S       1.003950      1.308773     -1.721288
  C      -2.388499      1.080036     -1.782062
  H      -1.584359      1.184516     -2.528807
  H      -3.198329      0.456131     -2.205916
  H      -2.799494      2.083400     -1.565117
  C       0.715093     -2.700148     -1.240860
  H       1.033765     -3.761461     -1.202180
  H      -0.381245     -2.639160     -1.163978
  H       1.009815     -2.273259     -2.213123
  C       0.967220      2.670615      1.941593
  H      -0.123316      2.612462      2.090894
  H       1.427445      3.178689      2.812885
  H       1.150805      3.268682      1.035475
  C       2.845293      1.252969     -1.817930
  H       3.192183      0.214673     -1.932231
  H       3.191625      1.851338     -2.682824
  H       3.277278      1.654699     -0.888664
21
Coordinates from ORCA-job Rubredoxin_minus2_singlet_quintet_singlet_min E -3015.172011257941
  Fe      0.460482      0.168221      0.076242
  S       1.515165     -1.749592      0.139313
  S       1.671878      0.983165      1.742371
  S      -1.691343      0.294020     -0.246752
  S       1.001996      1.296247     -1.724282
  C      -2.388590      1.096546     -1.774647
  H      -1.590479      1.189686     -2.528841
  H      -3.211343      0.485195     -2.191531
  H      -2.781585      2.105284     -1.551832
  C       0.733838     -2.698772     -1.243078
  H       1.060707     -3.757610     -1.210931
  H      -0.363076     -2.647856     -1.166612
  H       1.025684     -2.263388     -2.212203
  C       0.952305      2.672614      1.944783
  H      -0.139117      2.614314      2.086035
  H       1.406700      3.177760      2.820615
  H       1.143030      3.273956      1.042235
  C       2.842926      1.234478     -1.827729
  H       3.185575      0.193061     -1.924615
  H       3.185948      1.818020     -2.703880
  H       3.281663      1.652266     -0.908812
21
Coordinates from ORCA-job Rubredoxin_minus2_singlet_quintet_singlet_min E -3015.172026958965
  Fe      0.458447      0.163977      0.075184
  S       1.525870     -1.750293      0.142237
  S       1.656194      0.982405      1.743336
  S      -1.692613      0.295575     -0.247860
  S       0.999493      1.288087     -1.728201
  C      -2.387272      1.113218     -1.768539
  H      -1.599556      1.179385     -2.535958
  H      -3.235423      0.526288     -2.169130
  H      -2.743689      2.134268     -1.542959
  C       0.751735     -2.701897     -1.242237
  H       1.089148     -3.757319     -1.214037
  H      -0.345656     -2.662859     -1.164387
  H       1.038031     -2.260300     -2.209932
  C       0.937075      2.671969      1.947597
  H      -0.155328      2.614069      2.080298
  H       1.385717      3.171783      2.829343
  H       1.135564      3.278293      1.049985
  C       2.840008      1.222917     -1.837531
  H       3.180091      0.179368     -1.919584
  H       3.179460      1.794324     -2.723219
  H       3.285070      1.654357     -0.928557
21
Coordinates from ORCA-job Rubredoxin_minus2_singlet_quintet_singlet_min E -3015.172042916671
  Fe      0.456326      0.159693      0.072090
  S       1.541789     -1.748448      0.142812
  S       1.636939      0.982949      1.742968
  S      -1.694294      0.297798     -0.247100
  S       0.997786      1.279335     -1.733853
  C      -2.386809      1.135861     -1.756862
  H      -1.611808      1.171964     -2.538985
  H      -3.264231      0.580577     -2.139175
  H      -2.698913      2.170181     -1.527626
  C       0.776391     -2.704638     -1.242063
  H       1.126103     -3.755972     -1.215399
  H      -0.321403     -2.678950     -1.162634
  H       1.055848     -2.258735     -2.209630
  C       0.914778      2.670793      1.948042
  H      -0.178652      2.611756      2.071144
  H       1.356161      3.165960      2.836120
  H       1.120756      3.281968      1.055361
  C       2.837522      1.205160     -1.848894
  H       3.172477      0.158912     -1.917139
  H       3.175431      1.763830     -2.743740
  H       3.290168      1.647623     -0.949588
21
Coordinates from ORCA-job Rubredoxin_minus2_singlet_quintet_singlet_min E -3015.172058337333
  Fe      0.455394      0.154287      0.065810
  S       1.558093     -1.748410      0.144559
  S       1.618675      0.983179      1.738863
  S      -1.695326      0.299305     -0.246284
  S       0.995795      1.271020     -1.741971
  C      -2.385465      1.161704     -1.742420
  H      -1.626670      1.162838     -2.541364
  H      -3.295594      0.645537     -2.102688
  H      -2.644776      2.209995     -1.510755
  C       0.802619     -2.710183     -1.240000
  H       1.160243     -3.758797     -1.209973
  H      -0.295630     -2.692922     -1.162715
  H       1.079845     -2.264779     -2.208525
  C       0.889497      2.667342      1.945498
  H      -0.204409      2.604496      2.062610
  H       1.325297      3.160153      2.837822
  H       1.098232      3.282253      1.056021
  C       2.834886      1.189941     -1.860401
  H       3.166519      0.142106     -1.919715
  H       3.172511      1.739611     -2.761391
  H       3.292632      1.638938     -0.967131
21
Coordinates from ORCA-job Rubredoxin_minus2_singlet_quintet_singlet_min E -3015.172072297654
  Fe      0.455654      0.148642      0.059630
  S       1.573368     -1.748881      0.146186
  S       1.603944      0.984500      1.734395
  S      -1.695586      0.301464     -0.242844
  S       0.994430      1.262765     -1.749684
  C      -2.384311      1.186643     -1.725580
  H      -1.638071      1.165336     -2.536429
  H      -3.316833      0.701141     -2.071214
  H      -2.605161      2.243197     -1.490214
  C       0.827187     -2.714618     -1.239101
  H       1.185459     -3.762954     -1.202655
  H      -0.271622     -2.698265     -1.168348
  H       1.108654     -2.273524     -2.208671
  C       0.864993      2.664350      1.939635
  H      -0.228723      2.595649      2.055507
  H       1.297665      3.159816      2.832210
  H       1.071307      3.279243      1.049643
  C       2.832947      1.174308     -1.869666
  H       3.161520      0.125459     -1.926495
  H       3.172395      1.719578     -2.772874
  H       3.293151      1.623769     -0.977583
21
Coordinates from ORCA-job Rubredoxin_minus2_singlet_quintet_singlet_min E -3015.172089722608
  Fe      0.457653      0.141135      0.052387
  S       1.588134     -1.751930      0.150029
  S       1.590955      0.986605      1.728941
  S      -1.694448      0.303975     -0.237624
  S       0.993033      1.254732     -1.757350
  C      -2.382088      1.214252     -1.705120
  H      -1.645257      1.181334     -2.524610
  H      -3.329989      0.753274     -2.042725
  H      -2.575448      2.274989     -1.462401
  C       0.852467     -2.720590     -1.237776
  H       1.202430     -3.771493     -1.190465
  H      -0.247057     -2.696158     -1.180371
  H       1.147285     -2.288928     -2.208083
  C       0.838601      2.661160      1.930117
  H      -0.254096      2.583722      2.049949
  H       1.270572      3.164683      2.818687
  H       1.036706      3.272220      1.035773
  C       2.830987      1.158565     -1.878990
  H       3.156741      0.109312     -1.941587
  H       3.173608      1.705579     -2.779874
  H       3.291578      1.601177     -0.983056
21
Coordinates from ORCA-job Rubredoxin_minus2_singlet_quintet_singlet_min E -3015.172112418531
  Fe      0.460824      0.128601      0.043404
  S       1.607248     -1.757901      0.158075
  S       1.572142      0.989907      1.722901
  S      -1.691781      0.307494     -0.230827
  S       0.990950      1.243974     -1.765138
  C      -2.377889      1.254026     -1.675663
  H      -1.652555      1.214782     -2.505382
  H      -3.341086      0.820526     -2.006577
  H      -2.542910      2.316440     -1.418114
  C       0.888105     -2.729618     -1.235985
  H       1.221519     -3.785204     -1.172948
  H      -0.212011     -2.689760     -1.201711
  H       1.207381     -2.312386     -2.205400
  C       0.801408      2.657814      1.915821
  H      -0.289510      2.567956      2.042087
  H       1.232497      3.174589      2.797277
  H       0.987654      3.261696      1.014299
  C       2.827915      1.135496     -1.892921
  H       3.148431      0.085548     -1.967634
  H       3.173786      1.688285     -2.788702
  H       3.290248      1.565351     -0.991011
21
Coordinates from ORCA-job Rubredoxin_minus2_singlet_quintet_singlet_min E -3015.172149446983
  Fe      0.465717      0.103221      0.027362
  S       1.640217     -1.770359      0.175130
  S       1.533100      0.995140      1.712902
  S      -1.686321      0.313654     -0.222188
  S       0.986798      1.225676     -1.776348
  C      -2.366843      1.328463     -1.622179
  H      -1.668467      1.276575     -2.474193
  H      -3.358680      0.949069     -1.934755
  H      -2.474067      2.391157     -1.335933
  C       0.953746     -2.748666     -1.231139
  H       1.257956     -3.811163     -1.141615
  H      -0.145804     -2.683597     -1.239815
  H       1.317531     -2.356461     -2.196031
  C       0.731498      2.651666      1.890102
  H      -0.356178      2.540797      2.025212
  H       1.158832      3.190319      2.760243
  H       0.900203      3.243554      0.977579
  C       2.821434      1.094525     -1.920999
  H       3.131030      0.043231     -2.018291
  H       3.170031      1.659190     -2.807707
  H       3.290631      1.501625     -1.011487
21
Coordinates from ORCA-job Rubredoxin_minus2_singlet_quintet_singlet_min E -3015.172189325190
  Fe      0.471208      0.064076      0.003171
  S       1.679352     -1.791590      0.202065
  S       1.471545      1.000999      1.698621
  S      -1.678259      0.320691     -0.214801
  S       0.979970      1.206486     -1.786972
  C      -2.344359      1.433124     -1.544813
  H      -1.693827      1.363800     -2.432663
  H      -3.374918      1.137282     -1.820726
  H      -2.359909      2.489455     -1.218576
  C       1.045028     -2.781448     -1.221590
  H       1.298006     -3.852817     -1.090312
  H      -0.048679     -2.675439     -1.301281
  H       1.481816     -2.432826     -2.173729
  C       0.630923      2.642247      1.850817
  H      -0.452092      2.505210      1.996389
  H       1.051460      3.209774      2.705709
  H       0.779566      3.216691      0.924184
  C       2.810062      1.044034     -1.962823
  H       3.102444     -0.007552     -2.102569
  H       3.160024      1.634804     -2.831191
  H       3.293003      1.410616     -1.043058
21
Coordinates from ORCA-job Rubredoxin_minus2_singlet_quintet_singlet_min E -3015.172226139715
  Fe      0.471573      0.057927      0.000066
  S       1.666891     -1.801721      0.208804
  S       1.466865      1.000397      1.702226
  S      -1.678386      0.315833     -0.215898
  S       0.981295      1.219104     -1.777105
  C      -2.345996      1.433426     -1.540659
  H      -1.691254      1.380057     -2.426110
  H      -3.371126      1.128015     -1.826059
  H      -2.375970      2.485172     -1.202236
  C       1.045253     -2.793846     -1.220158
  H       1.271985     -3.868675     -1.072681
  H      -0.043792     -2.666003     -1.326627
  H       1.512733     -2.465305     -2.164808
  C       0.633879      2.646047      1.844319
  H      -0.450094      2.514711      1.988112
  H       1.054645      3.215177      2.697768
  H       0.788123      3.216112      0.915912
  C       2.810298      1.053611     -1.963485
  H       3.098510      0.004664     -2.131582
  H       3.159137      1.666984     -2.816448
  H       3.297796      1.395928     -1.037501
21
Coordinates from ORCA-job Rubredoxin_minus2_singlet_quintet_singlet_min E -3015.172253114668
  Fe      0.468310      0.051005     -0.004000
  S       1.667607     -1.803750      0.215520
  S       1.449226      1.000680      1.703286
  S      -1.680668      0.317536     -0.219131
  S       0.984528      1.220507     -1.773810
  C      -2.349428      1.450706     -1.529808
  H      -1.706339      1.399055     -2.423301
  H      -3.380205      1.155886     -1.804926
  H      -2.364765      2.498405     -1.180267
  C       1.064479     -2.798452     -1.219510
  H       1.279326     -3.873814     -1.061333
  H      -0.021388     -2.662129     -1.346234
  H       1.554128     -2.479037     -2.155557
  C       0.618869      2.646848      1.841430
  H      -0.466880      2.517939      1.972972
  H       1.032260      3.209400      2.702592
  H       0.785588      3.221832      0.918085
  C       2.811138      1.040920     -1.973357
  H       3.089029     -0.010628     -2.145227
  H       3.156312      1.655534     -2.827506
  H       3.311237      1.379172     -1.054066
21
Coordinates from ORCA-job Rubredoxin_minus2_singlet_quintet_singlet_min E -3015.172260573765
  Fe      0.467621      0.050413     -0.006928
  S       1.668875     -1.802971      0.214958
  S       1.446440      1.001016      1.701211
  S      -1.681601      0.320234     -0.221521
  S       0.988142      1.219837     -1.776924
  C      -2.351494      1.455828     -1.529462
  H      -1.708700      1.407229     -2.423414
  H      -3.382187      1.160584     -1.804142
  H      -2.366749      2.502231     -1.176115
  C       1.066366     -2.800956     -1.217331
  H       1.288834     -3.874735     -1.058940
  H      -0.020819     -2.671327     -1.339382
  H       1.551074     -2.478036     -2.154626
  C       0.615091      2.645276      1.842996
  H      -0.470898      2.515885      1.972450
  H       1.027489      3.203501      2.707496
  H       0.783106      3.224829      0.922623
  C       2.814501      1.039408     -1.976800
  H       3.091378     -0.013226     -2.143130
  H       3.157212      1.649746     -2.835248
  H       3.318682      1.382852     -1.061921
21
Coordinates from ORCA-job Rubredoxin_minus2_singlet_quintet_singlet_min E -3015.172263696481
  Fe      0.466938      0.044184     -0.012373
  S       1.675425     -1.804803      0.217110
  S       1.435558      1.000932      1.697085
  S      -1.681984      0.323307     -0.221752
  S       0.988993      1.215740     -1.781184
  C      -2.349276      1.474107     -1.517686
  H      -1.711231      1.426872     -2.415304
  H      -3.383971      1.189647     -1.788577
  H      -2.353177      2.518082     -1.156370
  C       1.080034     -2.807052     -1.214761
  H       1.303831     -3.880019     -1.052354
  H      -0.006978     -2.679639     -1.340720
  H       1.567437     -2.485831     -2.151371
  C       0.599058      2.642086      1.836692
  H      -0.486588      2.509847      1.966381
  H       1.010400      3.201669      2.700915
  H       0.765200      3.221544      0.915914
  C       2.814592      1.031961     -1.983256
  H       3.089640     -0.021210     -2.149279
  H       3.156291      1.640902     -2.843329
  H       3.322174      1.375290     -1.069932
21
Coordinates from ORCA-job Rubredoxin_minus2_singlet_quintet_singlet_min E -3015.172264860901
  Fe      0.466032      0.045179     -0.012575
  S       1.673064     -1.804224      0.215496
  S       1.438409      0.999725      1.696504
  S      -1.683324      0.322898     -0.222636
  S       0.989480      1.216744     -1.781876
  C      -2.350822      1.471118     -1.521043
  H      -1.708855      1.425867     -2.416052
  H      -3.383525      1.183022     -1.795538
  H      -2.359723      2.515421     -1.160257
  C       1.075642     -2.807949     -1.214500
  H       1.307789     -3.879599     -1.054787
  H      -0.012912     -2.687536     -1.333788
  H       1.555133     -2.481783     -2.153480
  C       0.604021      2.641471      1.837246
  H      -0.481814      2.511067      1.967776
  H       1.016903      3.199901      2.701516
  H       0.769819      3.221532      0.916755
  C       2.815497      1.036171     -1.980351
  H       3.092836     -0.017088     -2.141777
  H       3.156775      1.641751     -2.843038
  H       3.321941      1.383925     -1.067743
21
Coordinates from ORCA-job Rubredoxin_minus2_singlet_quintet_singlet_min E -3015.172265457365
  Fe      0.465648      0.044030     -0.013246
  S       1.672775     -1.804695      0.216583
  S       1.437422      0.999642      1.695653
  S      -1.683648      0.323299     -0.222299
  S       0.988718      1.216899     -1.781997
  C      -2.349918      1.474094     -1.519251
  H      -1.708315      1.428387     -2.414478
  H      -3.383287      1.188223     -1.793552
  H      -2.356820      2.518240     -1.157831
  C       1.078086     -2.809383     -1.214188
  H       1.310242     -3.880903     -1.053673
  H      -0.010300     -2.689428     -1.335653
  H       1.558977     -2.483600     -2.152612
  C       0.601979      2.640900      1.835975
  H      -0.483570      2.509959      1.968502
  H       1.015848      3.200811      2.698811
  H       0.765624      3.219990      0.914497
  C       2.814447      1.035498     -1.980934
  H       3.091433     -0.017717     -2.143340
  H       3.156005      1.641273     -2.843320
  H       3.321017      1.382096     -1.067797
