21
File written by ORCA
Fe   -0.240362    0.103776   -0.402376
S    -1.446310   -1.582385   -1.306496
S    -1.736122    1.431108    0.669852
S     1.487749   -0.924722    0.635883
S     0.839914    1.461823   -1.863918
C     2.728834    0.374314    0.983634
H     2.993382    0.914161    0.063970
H     3.632080   -0.100034    1.396433
H     2.345200    1.098970    1.715562
C    -0.194979   -2.595433   -2.177704
H    -0.697509   -3.444229   -2.665713
H     0.555254   -2.972376   -1.469471
H     0.319512   -1.992022   -2.938133
C    -0.803372    2.941515    1.117710
H    -0.207120    2.772203    2.025976
H    -1.511348    3.761613    1.311037
H    -0.123603    3.224209    0.301029
C    -0.509686    2.348756   -2.723892
H    -1.123525    1.641828   -3.298720
H    -0.071874    3.088807   -3.411174
H    -1.160270    2.857646   -1.998864
