21
File written by ORCA
Fe   -0.368247    0.153391   -0.408529
S    -1.074278   -2.026969   -0.544750
S    -2.346480    0.729540    0.638801
S     1.785064   -0.285557    0.119207
S     0.019162    1.993389   -1.670871
C     2.963464    1.037236   -0.388498
H     2.670427    1.457217   -1.363575
H     3.986330    0.623629   -0.468472
H     2.980334    1.866146    0.339743
C     0.120039   -2.916366   -1.625717
H    -0.031714   -4.010149   -1.547446
H     1.147829   -2.666253   -1.320128
H     0.000615   -2.625260   -2.684288
C    -1.988407    2.354948    1.418551
H    -1.181632    2.264435    2.165194
H    -2.893533    2.743432    1.924656
H    -1.656547    3.084994    0.662706
C    -1.596857    2.597098   -2.323471
H    -1.823260    2.140041   -3.302486
H    -1.582871    3.695425   -2.452234
H    -2.394452    2.313486   -1.617884
