21
Coordinates from ORCA-job Rubredoxin_minus2_triplet_quintet_triplet_min
  Fe  0.62224773749686      0.04191191545462     -0.42971395967264
  S   0.92631256677407     -2.06688639693962      0.38218237708068
  S   2.10820170732090      0.62455598250168      1.25114991839444
  S   -1.28349538336429     -0.56197772927336     -1.45739712824925
  S   0.83771356926927      1.92846056584840     -1.67235075761956
  C   -2.08592860776216      0.80784993859364     -2.38702870294181
  H   -1.34047754647155      1.36544768552422     -2.97706799868079
  H   -2.84721173480597      0.38631386412247     -3.06874741399235
  H   -2.58141829673973      1.52559197107432     -1.71071475217856
  C   -0.02983393205586     -3.35354761945809     -0.51874956922064
  H   0.06966501834412     -4.31324173617649      0.02122770609265
  H   -1.09716641051772     -3.08670162267265     -0.58137072105245
  H   0.33394745919888     -3.48996586301417     -1.55139831278489
  C   1.68221518735399      2.33369547433405      1.76989939478083
  H   0.74662215188675      2.34180945618939      2.35494034736401
  H   2.49006583391295      2.74618367645578      2.40400482345583
  H   1.53228207787801      2.98844815570997      0.89811235303643
  C   2.53850078301357      2.62572176138318     -1.54001811170324
  H   3.12181157804981      2.38603185789195     -2.44681886143606
  H   2.51030929095711      3.72617943568548     -1.43485775703923
  H   3.04800199026195      2.18173446676224     -0.66943278363239
