21
Coordinates from ORCA-job Cluster_code_quintet_min
  Fe  0.50212463072370      0.02144927883754      0.00337436654840
  S   1.42986694855537     -2.11978224282145      0.06680267600931
  S   1.26409591090034      1.22268839541252      1.87155363911327
  S   -1.84380428781333     -0.24547241690313     -0.22245809199895
  S   1.27087094448276      1.19880764814050     -1.89178014854505
  C   -2.36621620726727      1.09080739945010     -1.36881437117398
  H   -1.67805123446448      1.16335156662429     -2.22462312257005
  H   -3.38560118411104      0.89290619300353     -1.75062990721185
  H   -2.37619659815424      2.07279961144735     -0.86682061651262
  C   0.70817240282671     -2.91929427965178     -1.42255702671004
  H   0.92901826822610     -4.00319791284792     -1.43081569219063
  H   -0.38314367302262     -2.76974880000244     -1.43574733672709
  H   1.11909972309939     -2.46860756576429     -2.34064803356582
  C   0.74892605672972      2.94696105317311      1.49777466689061
  H   -0.32476336129894      3.09507989911488      1.70497106347383
  H   1.32002933964207      3.66697714716408      2.11295625886123
  H   0.92285892696587      3.16429324183461      0.43117480126181
  C   3.07835182381606      1.27407696045323     -1.57846779983188
  H   3.51395930232082      0.26217322308101     -1.60614024540642
  H   3.58274938132525      1.90138071221479     -2.33684440694057
  H   3.27001792651876      1.68996612803646     -0.57641058277249
