21
Coordinates from ORCA-job Rubredoxin_minus2_triplet_quintet_quintet_min E -3015.107789757762
  Fe      0.605036      0.063883     -0.216844
  S       1.173998     -2.065766      0.206381
  S       1.807018      0.901254      1.542614
  S      -1.505391     -0.338044     -0.802687
  S       1.024275      1.635844     -1.762702
  C      -2.181416      0.901271     -1.939798
  H      -1.485234      1.133361     -2.658451
  H      -3.071094      0.576022     -2.440543
  H      -2.420118      1.774124     -1.448695
  C       0.279116     -3.098633     -0.953258
  H       0.436371     -4.106648     -0.695699
  H      -0.797787     -2.896649     -0.957110
  H       0.630820     -2.945209     -1.928884
  C       1.238917      2.590258      1.729808
  H       0.239438      2.574885      2.128304
  H       1.880754      3.144055      2.394518
  H       1.230984      3.110903      0.789753
  C       2.779990      1.993962     -1.611803
  H       3.253224      1.400832     -2.107028
  H       2.980404      2.835320     -1.921922
  H       3.203059      1.952588     -0.710104
21
Coordinates from ORCA-job Rubredoxin_minus2_triplet_quintet_quintet_min E -3015.176682648459
  Fe      0.593498      0.061523     -0.213070
  S       1.170014     -2.076290      0.205187
  S       1.777932      0.901859      1.565708
  S      -1.533217     -0.324673     -0.788845
  S       1.037538      1.625219     -1.774643
  C      -2.204684      0.927418     -1.926156
  H      -1.489019      1.159828     -2.671495
  H      -3.111632      0.598093     -2.424817
  H      -2.440236      1.828217     -1.417382
  C       0.294468     -3.142592     -0.958332
  H       0.465337     -4.168732     -0.687331
  H      -0.786915     -2.951416     -0.969131
  H       0.655987     -2.989492     -1.954659
  C       1.217195      2.606328      1.751369
  H       0.203277      2.605327      2.141873
  H       1.862107      3.161002      2.432603
  H       1.222932      3.130703      0.799435
  C       2.803157      1.991222     -1.634845
  H       3.325523      1.327949     -2.175362
  H       3.015028      2.913136     -1.985053
  H       3.224073      1.952985     -0.679201
21
Coordinates from ORCA-job Rubredoxin_minus2_triplet_quintet_quintet_min E -3015.202275287577
  Fe      0.560152      0.048384     -0.199804
  S       1.153145     -2.102957      0.211018
  S       1.689756      0.904380      1.624057
  S      -1.596766     -0.307506     -0.759367
  S       1.070153      1.586544     -1.793166
  C      -2.261740      0.983429     -1.876193
  H      -1.529961      1.227701     -2.649121
  H      -3.190849      0.652209     -2.371074
  H      -2.489666      1.905805     -1.333976
  C       0.350640     -3.213297     -0.995645
  H       0.525037     -4.261597     -0.708042
  H      -0.733987     -3.030776     -1.055094
  H       0.760866     -3.058162     -2.000762
  C       1.189990      2.654391      1.748150
  H       0.150415      2.722448      2.100498
  H       1.837199      3.207986      2.452508
  H       1.252134      3.150873      0.766583
  C       2.850534      1.960343     -1.652727
  H       3.415817      1.243126     -2.194467
  H       3.074432      2.927379     -2.046409
  H       3.225065      1.936914     -0.631118
21
Coordinates from ORCA-job Rubredoxin_minus2_triplet_quintet_quintet_min E -3015.209465864881
  Fe      0.513138      0.021850     -0.187053
  S       1.131599     -2.139295      0.217150
  S       1.558064      0.907510      1.689358
  S      -1.669939     -0.314022     -0.741821
  S       1.103710      1.524765     -1.812468
  C      -2.330434      1.034848     -1.802571
  H      -1.591340      1.320309     -2.571910
  H      -3.261528      0.711454     -2.308983
  H      -2.563703      1.941589     -1.212997
  C       0.421290     -3.265396     -1.050120
  H       0.559672     -4.323493     -0.746784
  H      -0.653148     -3.064787     -1.192677
  H       0.913165     -3.120915     -2.029866
  C       1.185137      2.705288      1.687417
  H       0.136781      2.885182      1.982723
  H       1.840888      3.253558      2.394064
  H       1.325177      3.126933      0.675192
  C       2.884404      1.922874     -1.621780
  H       3.505398      1.172168     -2.129700
  H       3.119056      2.912894     -2.048027
  H       3.174976      1.924299     -0.553297
21
Coordinates from ORCA-job Rubredoxin_minus2_triplet_quintet_quintet_min E -3015.211981401992
  Fe      0.505392      0.023446     -0.189449
  S       1.162737     -2.140555      0.210284
  S       1.455566      0.954778      1.729104
  S      -1.700528     -0.308942     -0.735885
  S       1.166952      1.480208     -1.852363
  C      -2.369519      1.105423     -1.706680
  H      -1.628644      1.456642     -2.450899
  H      -3.292040      0.796692     -2.237425
  H      -2.620903      1.968004     -1.055444
  C       0.504686     -3.269347     -1.090414
  H       0.575660     -4.328641     -0.764573
  H      -0.547416     -3.023271     -1.308899
  H       1.071731     -3.163275     -2.036283
  C       1.065955      2.754008      1.685087
  H       0.026423      2.944100      2.007904
  H       1.739424      3.325336      2.355475
  H       1.166151      3.138841      0.654167
  C       2.968721      1.807888     -1.676704
  H       3.573333      1.032712     -2.210068
  H       3.239562      2.812926     -2.093429
  H       3.239123      1.770642     -0.597654
21
Coordinates from ORCA-job Rubredoxin_minus2_triplet_quintet_quintet_min E -3015.213871112878
  Fe      0.474195     -0.014358     -0.181691
  S       1.170379     -2.185391      0.186666
  S       1.357254      0.960007      1.761403
  S      -1.768592     -0.320998     -0.679851
  S       1.195125      1.388768     -1.889365
  C      -2.402008      1.111653     -1.647966
  H      -1.657138      1.444847     -2.394129
  H      -3.332725      0.822442     -2.171623
  H      -2.628806      1.978067     -0.995051
  C       0.528644     -3.290328     -1.144778
  H       0.567464     -4.352948     -0.831540
  H      -0.512042     -3.016439     -1.381960
  H       1.122529     -3.186987     -2.073114
  C       1.102470      2.776959      1.590864
  H       0.070160      3.067928      1.857819
  H       1.791398      3.335446      2.252862
  H       1.269060      3.078722      0.542496
  C       2.960720      1.819915     -1.592654
  H       3.656029      1.044354     -2.025730
  H       3.218615      2.817504     -2.053459
  H       3.119633      1.858453     -0.493350
21
Coordinates from ORCA-job Rubredoxin_minus2_triplet_quintet_quintet_min E -3015.215877478885
  Fe      0.495455     -0.003211     -0.163440
  S       1.289307     -2.174065      0.133869
  S       1.256927      1.065159      1.803485
  S      -1.809042     -0.282357     -0.555518
  S       1.290106      1.301379     -1.953692
  C      -2.395006      1.187203     -1.493868
  H      -1.655052      1.496546     -2.246315
  H      -3.345506      0.943742     -1.998764
  H      -2.569862      2.047493     -0.826414
  C       0.626133     -3.226187     -1.227099
  H       0.666700     -4.295595     -0.957191
  H      -0.418829     -2.939822     -1.423661
  H       1.202311     -3.089140     -2.157723
  C       0.865743      2.850858      1.584152
  H      -0.179697      3.079856      1.859069
  H       1.522415      3.468984      2.219794
  H       0.998764      3.123534      0.525521
  C       3.084491      1.600742     -1.668763
  H       3.727131      0.774413     -2.093664
  H       3.414002      2.567331     -2.145988
  H       3.235873      1.640751     -0.577939
21
Coordinates from ORCA-job Rubredoxin_minus2_triplet_quintet_quintet_min E -3015.217075871795
  Fe      0.459274     -0.027528     -0.130965
  S       1.295146     -2.192769      0.134876
  S       1.163861      1.091789      1.833290
  S      -1.864613     -0.296046     -0.490548
  S       1.279979      1.233132     -1.951716
  C      -2.418550      1.186244     -1.424204
  H      -1.673470      1.477609     -2.174060
  H      -3.375398      0.972779     -1.931245
  H      -2.570656      2.045232     -0.754793
  C       0.680015     -3.180033     -1.289337
  H       0.699532     -4.257371     -1.055302
  H      -0.353470     -2.878339     -1.519823
  H       1.296793     -3.013758     -2.185842
  C       0.879438      2.875152      1.493718
  H      -0.163689      3.167819      1.704193
  H       1.539278      3.494690      2.125045
  H       1.080104      3.081534      0.431318
  C       3.057197      1.542472     -1.600884
  H       3.704741      0.715476     -1.970588
  H       3.401513      2.478208     -2.091324
  H       3.185342      1.621324     -0.515959
21
Coordinates from ORCA-job Rubredoxin_minus2_triplet_quintet_quintet_min E -3015.217421470972
  Fe      0.532834     -0.062944     -0.167442
  S       1.389078     -2.227434      0.051953
  S       1.240743      1.082528      1.780296
  S      -1.806320     -0.313155     -0.480811
  S       1.343807      1.176378     -2.011161
  C      -2.343432      1.181967     -1.403567
  H      -1.594892      1.464730     -2.156541
  H      -3.307625      0.992719     -1.911320
  H      -2.478159      2.040875     -0.726828
  C       0.593158     -3.208513     -1.281975
  H       0.622080     -4.286757     -1.040400
  H      -0.455976     -2.893684     -1.397209
  H       1.105374     -3.056754     -2.246212
  C       0.839602      2.844081      1.448343
  H      -0.202542      3.078325      1.726501
  H       1.506124      3.507301      2.030236
  H       0.960463      3.056198      0.373710
  C       3.066752      1.621783     -1.560677
  H       3.772934      0.817806     -1.820201
  H       3.387925      2.530630     -2.092516
  H       3.130440      1.791536     -0.478329
21
Coordinates from ORCA-job Rubredoxin_minus2_triplet_quintet_quintet_min E -3015.217616271870
  Fe      0.493495     -0.047956     -0.116651
  S       1.348343     -2.210776      0.104078
  S       1.215186      1.111360      1.814108
  S      -1.844317     -0.298337     -0.425378
  S       1.291002      1.187402     -1.966054
  C      -2.374951      1.173924     -1.388119
  H      -1.609000      1.452268     -2.127067
  H      -3.323845      0.967426     -1.918225
  H      -2.536556      2.044367     -0.730141
  C       0.656412     -3.148399     -1.316845
  H       0.673085     -4.234817     -1.109140
  H      -0.382492     -2.833771     -1.503207
  H       1.238486     -2.963137     -2.235535
  C       0.846212      2.873726      1.448090
  H      -0.196038      3.126436      1.709465
  H       1.514818      3.538896      2.025977
  H       0.984040      3.069393      0.371961
  C       3.048861      1.530220     -1.566006
  H       3.692303      0.686135     -1.846564
  H       3.405415      2.419532     -2.105111
  H       3.161905      1.693723     -0.483785
21
Coordinates from ORCA-job Rubredoxin_minus2_triplet_quintet_quintet_min E -3015.217706206537
  Fe      0.493705     -0.036798     -0.107279
  S       1.376342     -2.189861      0.090511
  S       1.193976      1.122502      1.828942
  S      -1.839545     -0.312287     -0.428924
  S       1.282349      1.222625     -1.943448
  C      -2.382936      1.163416     -1.379657
  H      -1.605369      1.474388     -2.094001
  H      -3.312470      0.943472     -1.937509
  H      -2.583364      2.018936     -0.711407
  C       0.662936     -3.123324     -1.323878
  H       0.710183     -4.212313     -1.134374
  H      -0.387718     -2.829863     -1.475950
  H       1.212938     -2.911111     -2.256912
  C       0.838183      2.885488      1.448650
  H      -0.214119      3.136989      1.668280
  H       1.481748      3.552956      2.051479
  H       1.018577      3.081764      0.378892
  C       3.058776      1.496642     -1.571310
  H       3.660639      0.618698     -1.848948
  H       3.444831      2.367344     -2.126973
  H       3.192703      1.667951     -0.490334
21
Coordinates from ORCA-job Rubredoxin_minus2_triplet_quintet_quintet_min E -3015.217805250574
  Fe      0.506231     -0.037836     -0.087646
  S       1.377551     -2.196110      0.099663
  S       1.237125      1.153003      1.814224
  S      -1.836573     -0.288233     -0.373666
  S       1.289182      1.183069     -1.952543
  C      -2.369192      1.182484     -1.338522
  H      -1.579567      1.495592     -2.039490
  H      -3.286977      0.957695     -1.912982
  H      -2.586292      2.040623     -0.677039
  C       0.685854     -3.089029     -1.353250
  H       0.745062     -4.183795     -1.204162
  H      -0.366651     -2.802150     -1.504859
  H       1.240041     -2.836252     -2.274017
  C       0.783994      2.896261      1.440956
  H      -0.277370      3.091718      1.674215
  H       1.397828      3.598497      2.034899
  H       0.939467      3.102029      0.369123
  C       3.070824      1.430850     -1.582535
  H       3.639653      0.500769     -1.757695
  H       3.496243      2.232107     -2.219544
  H       3.195934      1.706325     -0.519280
21
Coordinates from ORCA-job Rubredoxin_minus2_triplet_quintet_quintet_min E -3015.217861684800
  Fe      0.513694     -0.037687     -0.079302
  S       1.400020     -2.191977      0.082163
  S       1.239630      1.162269      1.816947
  S      -1.832179     -0.292288     -0.352971
  S       1.291736      1.180307     -1.949052
  C      -2.363351      1.170201     -1.330120
  H      -1.569904      1.481378     -2.026922
  H      -3.276157      0.939771     -1.910547
  H      -2.588306      2.031236     -0.675657
  C       0.677838     -3.069298     -1.364525
  H       0.763741     -4.165353     -1.240068
  H      -0.384571     -2.800960     -1.475503
  H       1.195718     -2.785747     -2.296742
  C       0.780706      2.899903      1.428436
  H      -0.285138      3.088146      1.645029
  H       1.381140      3.609263      2.028065
  H       0.950634      3.101748      0.358022
  C       3.072185      1.419400     -1.569552
  H       3.628949      0.478644     -1.712909
  H       3.511580      2.196603     -2.224250
  H       3.194401      1.722055     -0.514691
21
Coordinates from ORCA-job Rubredoxin_minus2_triplet_quintet_quintet_min E -3015.217900818172
  Fe      0.514345     -0.032443     -0.061194
  S       1.409819     -2.183879      0.074893
  S       1.243912      1.177974      1.823612
  S      -1.834192     -0.289381     -0.320507
  S       1.289121      1.174555     -1.939363
  C      -2.365387      1.156237     -1.321467
  H      -1.570699      1.457551     -2.020044
  H      -3.275529      0.914971     -1.901840
  H      -2.594803      2.026276     -0.681748
  C       0.681446     -3.035648     -1.382776
  H       0.807436     -4.131508     -1.298983
  H      -0.391700     -2.799462     -1.458097
  H       1.165658     -2.700683     -2.315006
  C       0.778629      2.909176      1.419091
  H      -0.291850      3.089316      1.617018
  H       1.364103      3.625197      2.025759
  H       0.964059      3.106322      0.350411
  C       3.072193      1.388373     -1.557778
  H       3.605384      0.429640     -1.659785
  H       3.533250      2.127377     -2.239630
  H       3.197168      1.727656     -0.516715
21
Coordinates from ORCA-job Rubredoxin_minus2_triplet_quintet_quintet_min E -3015.217925955908
  Fe      0.513083     -0.022431     -0.041160
  S       1.412667     -2.172223      0.073037
  S       1.251973      1.195044      1.831740
  S      -1.837171     -0.281027     -0.287045
  S       1.286488      1.170983     -1.927941
  C      -2.370846      1.142042     -1.318196
  H      -1.579521      1.424881     -2.027727
  H      -3.284139      0.888398     -1.888361
  H      -2.595970      2.026887     -0.698148
  C       0.689323     -2.999041     -1.400790
  H       0.854355     -4.091971     -1.357144
  H      -0.392191     -2.796588     -1.450417
  H       1.146034     -2.613477     -2.326675
  C       0.773776      2.920663      1.420718
  H      -0.299768      3.090762      1.610032
  H       1.348381      3.641907      2.031481
  H       0.964745      3.116629      0.352818
  C       3.074964      1.350371     -1.553236
  H       3.579316      0.372523     -1.613640
  H       3.557653      2.045201     -2.265439
  H       3.209213      1.728080     -0.528056
21
Coordinates from ORCA-job Rubredoxin_minus2_triplet_quintet_quintet_min E -3015.217945465491
  Fe      0.512069     -0.007892     -0.022751
  S       1.413964     -2.156456      0.071098
  S       1.262516      1.209893      1.842009
  S      -1.838746     -0.269453     -0.257374
  S       1.285669      1.174172     -1.915712
  C      -2.376971      1.123819     -1.326404
  H      -1.597188      1.372184     -2.061256
  H      -3.304035      0.860048     -1.869175
  H      -2.580261      2.032136     -0.733483
  C       0.693952     -2.965153     -1.414234
  H       0.893482     -4.053129     -1.403422
  H      -0.393769     -2.794132     -1.442326
  H       1.124725     -2.537740     -2.333924
  C       0.769431      2.932549      1.435776
  H      -0.305258      3.093564      1.626956
  H       1.339577      3.655572      2.048325
  H       0.956753      3.131599      0.367824
  C       3.080575      1.316647     -1.554959
  H       3.557769      0.323455     -1.586854
  H       3.578802      1.973959     -2.291455
  H       3.229310      1.721973     -0.542810
21
Coordinates from ORCA-job Rubredoxin_minus2_triplet_quintet_quintet_min E -3015.217960388964
  Fe      0.510160      0.006790     -0.011282
  S       1.413716     -2.140711      0.070460
  S       1.269022      1.218134      1.852353
  S      -1.839518     -0.259292     -0.241943
  S       1.285952      1.184144     -1.905332
  C      -2.382579      1.106988     -1.343430
  H      -1.623359      1.309911     -2.113369
  H      -3.333213      0.844019     -1.844227
  H      -2.545213      2.041009     -0.778464
  C       0.695616     -2.944525     -1.418674
  H       0.912894     -4.029140     -1.421191
  H      -0.394872     -2.790274     -1.437143
  H       1.113071     -2.498274     -2.335712
  C       0.767318      2.941799      1.458657
  H      -0.306602      3.098892      1.658192
  H       1.339978      3.662347      2.071474
  H       0.946767      3.146577      0.390472
  C       3.086457      1.297076     -1.561899
  H       3.547635      0.296204     -1.597130
  H       3.588863      1.943872     -2.304554
  H       3.250269      1.702068     -0.551407
21
Coordinates from ORCA-job Rubredoxin_minus2_triplet_quintet_quintet_min E -3015.217967166202
  Fe      0.508831      0.010389     -0.010693
  S       1.415718     -2.135713      0.071129
  S       1.265700      1.219938      1.854730
  S      -1.839485     -0.259137     -0.244786
  S       1.287115      1.187458     -1.903558
  C      -2.384273      1.107145     -1.345581
  H      -1.636586      1.295438     -2.130731
  H      -3.347181      0.853279     -1.827216
  H      -2.524110      2.047113     -0.784237
  C       0.700557     -2.941969     -1.418392
  H       0.913957     -4.027343     -1.415982
  H      -0.389346     -2.784154     -1.442621
  H       1.123576     -2.500498     -2.335466
  C       0.761089      2.944328      1.465674
  H      -0.312718      3.099752      1.667311
  H       1.333797      3.664614      2.078734
  H       0.939431      3.152157      0.397918
  C       3.089431      1.289688     -1.567283
  H       3.545867      0.287325     -1.611059
  H       3.591207      1.939572     -2.307694
  H       3.259787      1.688232     -0.554346
21
Coordinates from ORCA-job Rubredoxin_minus2_triplet_quintet_quintet_min E -3015.217970679336
  Fe      0.508537      0.010842     -0.011067
  S       1.419187     -2.134075      0.069739
  S       1.262981      1.220099      1.855662
  S      -1.839193     -0.260135     -0.246318
  S       1.287496      1.187648     -1.903813
  C      -2.382512      1.107667     -1.345755
  H      -1.642680      1.285381     -2.140895
  H      -3.354047      0.862567     -1.814414
  H      -2.504811      2.051347     -0.786643
  C       0.702432     -2.941780     -1.418381
  H       0.910086     -4.028239     -1.411520
  H      -0.386629     -2.778737     -1.445745
  H       1.129403     -2.506431     -2.336664
  C       0.756567      2.944635      1.468470
  H      -0.317188      3.098811      1.670971
  H       1.328840      3.665632      2.081233
  H       0.934866      3.154108      0.401047
  C       3.090095      1.287898     -1.569602
  H       3.545236      0.285293     -1.614433
  H       3.591081      1.939112     -2.309701
  H       3.262619      1.685972     -0.556317
21
Coordinates from ORCA-job Rubredoxin_minus2_triplet_quintet_quintet_min E -3015.217972726181
  Fe      0.507324      0.011698     -0.008832
  S       1.420599     -2.132508      0.069147
  S       1.261995      1.220488      1.857985
  S      -1.840097     -0.259405     -0.243187
  S       1.285292      1.188019     -1.902141
  C      -2.380448      1.105177     -1.347753
  H      -1.646099      1.271014     -2.150474
  H      -3.358189      0.865552     -1.806290
  H      -2.489239      2.053874     -0.794629
  C       0.703516     -2.938450     -1.419669
  H       0.910481     -4.025042     -1.413643
  H      -0.385478     -2.774954     -1.447060
  H       1.130631     -2.503036     -2.337831
  C       0.755704      2.945141      1.471404
  H      -0.317834      3.099287      1.674678
  H       1.328380      3.666480      2.083529
  H       0.933761      3.155014      0.404018
  C       3.088313      1.285785     -1.570230
  H       3.540846      0.282010     -1.611213
  H       3.589578      1.933880     -2.313093
  H       3.263327      1.687588     -0.558864
21
Coordinates from ORCA-job Rubredoxin_minus2_triplet_quintet_quintet_min E -3015.217975340604
  Fe      0.505112      0.016063     -0.003048
  S       1.425727     -2.125932      0.066267
  S       1.260576      1.222332      1.864494
  S      -1.841176     -0.256820     -0.235734
  S       1.280646      1.192204     -1.896936
  C      -2.375604      1.097656     -1.354900
  H      -1.657495      1.230917     -2.178046
  H      -3.369414      0.871936     -1.785237
  H      -2.448751      2.059399     -0.819317
  C       0.705415     -2.928416     -1.422469
  H       0.916084     -4.014316     -1.421515
  H      -0.384299     -2.768784     -1.444400
  H       1.126724     -2.488468     -2.341056
  C       0.752608      2.947049      1.481577
  H      -0.320640      3.099910      1.686905
  H       1.325654      3.668477      2.093431
  H       0.929384      3.158932      0.414368
  C       3.085507      1.278762     -1.572984
  H       3.528902      0.270667     -1.603826
  H       3.588850      1.915656     -2.324405
  H       3.268555      1.690392     -0.567321
21
Coordinates from ORCA-job Rubredoxin_minus2_triplet_quintet_quintet_min E -3015.217976882534
  Fe      0.503291      0.016986     -0.001559
  S       1.425565     -2.124748      0.066664
  S       1.259921      1.221617      1.866556
  S      -1.842536     -0.255164     -0.233840
  S       1.277953      1.192983     -1.895647
  C      -2.373727      1.095674     -1.358779
  H      -1.664238      1.212791     -2.191795
  H      -3.375378      0.878149     -1.775034
  H      -2.428559      2.062941     -0.831254
  C       0.706342     -2.926843     -1.422586
  H       0.918582     -4.012452     -1.422791
  H      -0.383631     -2.768793     -1.443751
  H       1.126632     -2.485453     -2.340935
  C       0.753032      2.946851      1.485356
  H      -0.319821      3.100661      1.692217
  H       1.327569      3.667352      2.096894
  H       0.928495      3.159076      0.417984
  C       3.083175      1.279022     -1.573500
  H       3.525919      0.270537     -1.602979
  H       3.586280      1.914202     -2.326429
  H       3.267501      1.692227     -0.568942
21
Coordinates from ORCA-job Rubredoxin_minus2_triplet_quintet_quintet_min E -3015.217937662492
  Fe      0.488648      0.030665      0.018056
  S       1.425744     -2.108975      0.068971
  S       1.261384      1.220422      1.888507
  S      -1.854244     -0.232186     -0.203261
  S       1.252027      1.204194     -1.879949
  C      -2.354479      1.068670     -1.398002
  H      -1.736313      1.026206     -2.307591
  H      -3.414861      0.936130     -1.685784
  H      -2.241708      2.077361     -0.968307
  C       0.712897     -2.901043     -1.426815
  H       0.944914     -3.982606     -1.446323
  H      -0.380054     -2.762751     -1.434663
  H       1.116941     -2.437569     -2.341493
  C       0.755419      2.948526      1.526543
  H      -0.314495      3.105136      1.748001
  H       1.340107      3.661972      2.136546
  H       0.917154      3.166690      0.458065
  C       3.062224      1.272679     -1.580833
  H       3.490595      0.256871     -1.593399
  H       3.565637      1.883030     -2.353030
  H       3.264827      1.704191     -0.589389
21
Coordinates from ORCA-job Rubredoxin_minus2_triplet_quintet_quintet_min E -3015.217979635493
  Fe      0.501553      0.019383      0.002724
  S       1.425523     -2.122793      0.067797
  S       1.264121      1.221752      1.869880
  S      -1.844562     -0.247687     -0.224032
  S       1.271662      1.194970     -1.893117
  C      -2.368278      1.091205     -1.366732
  H      -1.672210      1.175886     -2.215022
  H      -3.381803      0.886211     -1.760278
  H      -2.393068      2.069775     -0.858323
  C       0.706801     -2.921666     -1.423114
  H       0.926384     -4.005879     -1.430662
  H      -0.384289     -2.770652     -1.438531
  H       1.120473     -2.471668     -2.340330
  C       0.753230      2.946502      1.493371
  H      -0.319759      3.098216      1.702083
  H       1.327389      3.666017      2.106228
  H       0.925757      3.160861      0.425898
  C       3.078065      1.277903     -1.575175
  H       3.517903      0.267580     -1.600347
  H       3.582026      1.906011     -2.333111
  H       3.265445      1.695687     -0.573355
21
Coordinates from ORCA-job Rubredoxin_minus2_triplet_quintet_quintet_min E -3015.217980228938
  Fe      0.501521      0.019946      0.002449
  S       1.427597     -2.121472      0.067193
  S       1.262484      1.221945      1.870470
  S      -1.844173     -0.248345     -0.225522
  S       1.271856      1.196478     -1.892621
  C      -2.368079      1.091788     -1.366624
  H      -1.675379      1.173878     -2.217886
  H      -3.383975      0.890117     -1.755702
  H      -2.387194      2.070631     -0.858641
  C       0.707977     -2.921257     -1.422882
  H       0.927392     -4.005475     -1.429689
  H      -0.383108     -2.770217     -1.438201
  H       1.121324     -2.472089     -2.340636
  C       0.751156      2.946747      1.494334
  H      -0.322085      3.097713      1.701942
  H       1.324254      3.666421      2.108055
  H       0.925007      3.161967      0.427275
  C       3.078615      1.276175     -1.576341
  H       3.516651      0.265245     -1.602480
  H       3.582762      1.904245     -2.334243
  H       3.267762      1.693175     -0.574398
21
Coordinates from ORCA-job Rubredoxin_minus2_triplet_quintet_quintet_min E -3015.217981099910
  Fe      0.502115      0.021488      0.003378
  S       1.429980     -2.119698      0.066749
  S       1.263992      1.222698      1.871611
  S      -1.843790     -0.245518     -0.222521
  S       1.270860      1.198916     -1.891729
  C      -2.366210      1.090810     -1.368816
  H      -1.678193      1.163229     -2.224754
  H      -3.385695      0.893051     -1.750438
  H      -2.375946      2.072816     -0.866849
  C       0.708231     -2.919244     -1.422566
  H       0.929114     -4.003140     -1.430830
  H      -0.383091     -2.769737     -1.435700
  H       1.119091     -2.468548     -2.340681
  C       0.748850      2.946977      1.497819
  H      -0.324848      3.095099      1.704962
  H       1.319927      3.666987      2.113033
  H       0.922841      3.164317      0.431230
  C       3.078364      1.273985     -1.578502
  H       3.513844      0.262027     -1.606130
  H       3.582803      1.901185     -2.336938
  H       3.270127      1.689914     -0.576479
