21
Coordinates from ORCA-job Cluster_code_triplet_min E -3015.108755601887
  Fe      0.605036      0.063883     -0.216844
  S       1.173998     -2.065766      0.206381
  S       1.807018      0.901254      1.542614
  S      -1.505391     -0.338044     -0.802687
  S       1.024275      1.635844     -1.762702
  C      -2.181416      0.901271     -1.939798
  H      -1.485234      1.133361     -2.658451
  H      -3.071094      0.576022     -2.440543
  H      -2.420118      1.774124     -1.448695
  C       0.279116     -3.098633     -0.953258
  H       0.436371     -4.106648     -0.695699
  H      -0.797787     -2.896649     -0.957110
  H       0.630820     -2.945209     -1.928884
  C       1.238917      2.590258      1.729808
  H       0.239438      2.574885      2.128304
  H       1.880754      3.144055      2.394518
  H       1.230984      3.110903      0.789753
  C       2.779990      1.993962     -1.611803
  H       3.253224      1.400832     -2.107028
  H       2.980404      2.835320     -1.921922
  H       3.203059      1.952588     -0.710104
21
Coordinates from ORCA-job Cluster_code_triplet_min E -3015.175647348572
  Fe      0.595422      0.061671     -0.215426
  S       1.164133     -2.070565      0.216781
  S       1.803135      0.887304      1.547080
  S      -1.517600     -0.329130     -0.802990
  S       1.016568      1.637961     -1.758902
  C      -2.193566      0.919183     -1.942677
  H      -1.475602      1.156099     -2.685337
  H      -3.096726      0.584065     -2.445918
  H      -2.436647      1.818614     -1.433703
  C       0.283155     -3.133804     -0.944807
  H       0.449741     -4.159915     -0.669567
  H      -0.797056     -2.938167     -0.954975
  H       0.644632     -2.985136     -1.943077
  C       1.236452      2.588778      1.739008
  H       0.225498      2.585154      2.139984
  H       1.888261      3.142533      2.414525
  H       1.231275      3.114535      0.788613
  C       2.781736      2.008433     -1.618857
  H       3.305510      1.351655     -2.168494
  H       2.988253      2.936150     -1.960622
  H       3.205791      1.962198     -0.664790
21
Coordinates from ORCA-job Cluster_code_triplet_min E -3015.196389827648
  Fe      0.569154      0.060682     -0.210866
  S       1.117519     -2.075261      0.262354
  S       1.801899      0.863132      1.547605
  S      -1.552088     -0.300565     -0.793152
  S       1.007005      1.631187     -1.759390
  C      -2.224964      0.956116     -1.946319
  H      -1.488629      1.186194     -2.719354
  H      -3.147296      0.604023     -2.441701
  H      -2.463430      1.889032     -1.427423
  C       0.310532     -3.182999     -0.941823
  H       0.479292     -4.228497     -0.641404
  H      -0.772350     -2.997049     -1.001999
  H       0.721213     -3.038316     -1.949918
  C       1.248231      2.589122      1.744339
  H       0.220398      2.616701      2.139709
  H       1.911833      3.133127      2.440776
  H       1.257151      3.118890      0.780784
  C       2.787186      2.018632     -1.629654
  H       3.351109      1.318200     -2.192317
  H       2.992305      2.994587     -2.008403
  H       3.176294      1.980675     -0.615993
21
Coordinates from ORCA-job Cluster_code_triplet_min E -3015.200355005569
  Fe      0.533515      0.068718     -0.196646
  S       1.028176     -2.071352      0.337726
  S       1.826657      0.845635      1.531987
  S      -1.605711     -0.243508     -0.743323
  S       0.989203      1.608738     -1.772784
  C      -2.256039      0.978838     -1.956759
  H      -1.515053      1.153336     -2.754523
  H      -3.193890      0.613800     -2.421349
  H      -2.467137      1.951681     -1.478982
  C       0.348882     -3.193105     -0.946804
  H       0.489161     -4.245862     -0.631192
  H      -0.723752     -3.003496     -1.106700
  H       0.854445     -3.048620     -1.919755
  C       1.274381      2.579516      1.763078
  H       0.238881      2.617884      2.146802
  H       1.935280      3.100610      2.484772
  H       1.295871      3.125772      0.805767
  C       2.777086      2.013383     -1.646604
  H       3.374515      1.270773     -2.180945
  H       2.982002      3.000519     -2.079990
  H       3.115891      2.014354     -0.597927
21
Coordinates from ORCA-job Cluster_code_triplet_min E -3015.200800433421
  Fe      0.524163      0.102910     -0.165401
  S       1.014032     -2.039892      0.375043
  S       1.833332      0.851076      1.565277
  S      -1.616273     -0.211032     -0.706847
  S       0.965247      1.661937     -1.727703
  C      -2.258237      0.961663     -1.977235
  H      -1.508521      1.109309     -2.774421
  H      -3.188292      0.566865     -2.432146
  H      -2.479002      1.953161     -1.540519
  C       0.370068     -3.146246     -0.946296
  H       0.489321     -4.204627     -0.639271
  H      -0.695395     -2.939776     -1.133922
  H       0.907691     -2.996638     -1.901956
  C       1.259740      2.576423      1.837242
  H       0.202920      2.603072      2.158123
  H       1.874449      3.063498      2.620718
  H       1.336461      3.159334      0.904532
  C       2.781878      1.971472     -1.721678
  H       3.311307      1.208365     -2.321682
  H       3.007678      2.970624     -2.147720
  H       3.169799      1.916115     -0.688288
21
Coordinates from ORCA-job Cluster_code_triplet_min E -3015.200845808609
  Fe      0.519531      0.065388     -0.191993
  S       0.964968     -2.076731      0.402375
  S       1.877510      0.790076      1.512078
  S      -1.631721     -0.219120     -0.706480
  S       0.962781      1.608435     -1.769302
  C      -2.275544      0.932650     -1.998914
  H      -1.524601      1.070540     -2.796265
  H      -3.201797      0.520479     -2.442531
  H      -2.499696      1.930293     -1.579377
  C       0.325305     -3.175871     -0.931405
  H       0.399634     -4.235095     -0.616345
  H      -0.727145     -2.929089     -1.143436
  H       0.892960     -3.051352     -1.872042
  C       1.368899      2.544395      1.745943
  H       0.302407      2.624976      2.018430
  H       1.970173      3.006983      2.553120
  H       1.511592      3.109833      0.810899
  C       2.741356      2.085000     -1.615290
  H       3.402209      1.346886     -2.130247
  H       2.916302      3.091471     -2.071421
  H       3.007239      2.097466     -0.541946
21
Coordinates from ORCA-job Cluster_code_triplet_min E -3015.201082499233
  Fe      0.536309      0.093282     -0.210322
  S       0.959002     -2.039440      0.432694
  S       1.907953      0.843107      1.471570
  S      -1.619274     -0.182667     -0.710340
  S       0.986321      1.595707     -1.823668
  C      -2.275341      0.990535     -1.975075
  H      -1.526842      1.153605     -2.766809
  H      -3.197066      0.581118     -2.428843
  H      -2.509339      1.973961     -1.533503
  C       0.373200     -3.152862     -0.910722
  H       0.429430     -4.206643     -0.578140
  H      -0.667392     -2.905480     -1.172263
  H       0.982355     -3.042772     -1.824929
  C       1.268299      2.530704      1.826027
  H       0.211211      2.501236      2.139559
  H       1.861043      2.996609      2.636972
  H       1.326111      3.160010      0.923858
  C       2.784524      2.002557     -1.730391
  H       3.391847      1.252352     -2.277271
  H       2.980224      3.001041     -2.178114
  H       3.099789      1.991654     -0.674440
21
Coordinates from ORCA-job Cluster_code_triplet_min E -3015.201215855617
  Fe      0.531283      0.088287     -0.177985
  S       1.000242     -2.052503      0.403994
  S       1.846758      0.825919      1.553573
  S      -1.604579     -0.235540     -0.729852
  S       0.961001      1.656448     -1.732228
  C      -2.264804      0.946935     -1.981914
  H      -1.503196      1.149587     -2.750649
  H      -3.163760      0.524409     -2.469151
  H      -2.538407      1.911516     -1.523076
  C       0.351322     -3.143014     -0.926428
  H       0.429971     -4.202575     -0.616447
  H      -0.702191     -2.898416     -1.131229
  H       0.913937     -3.011439     -1.866937
  C       1.295454      2.560604      1.801007
  H       0.219825      2.603051      2.042102
  H       1.861825      3.023307      2.632916
  H       1.452954      3.152275      0.884634
  C       2.770769      2.008824     -1.699154
  H       3.321910      1.295092     -2.331875
  H       2.972996      3.027418     -2.074127
  H       3.149055      1.907430     -0.671324
21
Coordinates from ORCA-job Cluster_code_triplet_min E -3015.201445318024
  Fe      0.526069      0.085868     -0.183532
  S       0.963954     -2.055989      0.427271
  S       1.880403      0.809655      1.524633
  S      -1.620125     -0.213694     -0.708141
  S       0.953829      1.641900     -1.749958
  C      -2.269549      0.931498     -2.001482
  H      -1.506944      1.097815     -2.778468
  H      -3.173849      0.499505     -2.469455
  H      -2.531273      1.915233     -1.576807
  C       0.338102     -3.144295     -0.917939
  H       0.391510     -4.204026     -0.602833
  H      -0.705287     -2.882315     -1.151373
  H       0.929381     -3.024840     -1.842427
  C       1.334742      2.544212      1.793023
  H       0.258703      2.588294      2.030634
  H       1.900336      2.992378      2.633317
  H       1.496766      3.146672      0.884623
  C       2.754061      2.044238     -1.679988
  H       3.341729      1.342145     -2.298915
  H       2.936289      3.069424     -2.056248
  H       3.103517      1.953941     -0.640086
21
Coordinates from ORCA-job Cluster_code_triplet_min E -3015.201505504586
  Fe      0.531237      0.063856     -0.211499
  S       0.943798     -2.071181      0.452128
  S       1.881595      0.792630      1.499004
  S      -1.609454     -0.239938     -0.755298
  S       0.968248      1.610642     -1.783210
  C      -2.282480      0.961298     -1.985773
  H      -1.516998      1.199054     -2.741377
  H      -3.166546      0.527125     -2.488497
  H      -2.581339      1.908590     -1.505524
  C       0.342557     -3.171959     -0.895713
  H       0.369812     -4.228113     -0.564986
  H      -0.689225     -2.894864     -1.161382
  H       0.963435     -3.074666     -1.803319
  C       1.341983      2.532338      1.751121
  H       0.258696      2.584235      1.948991
  H       1.880793      2.972791      2.612853
  H       1.540830      3.136116      0.850913
  C       2.755073      2.066533     -1.664648
  H       3.380492      1.392265     -2.280963
  H       2.914683      3.103871     -2.021548
  H       3.075177      1.966993     -0.615424
21
Coordinates from ORCA-job Cluster_code_triplet_min E -3015.201611069464
  Fe      0.538077      0.069831     -0.213485
  S       0.931680     -2.069330      0.462150
  S       1.918385      0.779222      1.482818
  S      -1.607583     -0.227735     -0.739640
  S       0.955078      1.630282     -1.775113
  C      -2.267666      0.920214     -2.027017
  H      -1.497788      1.117208     -2.789994
  H      -3.153071      0.468785     -2.511847
  H      -2.562122      1.890472     -1.591434
  C       0.302973     -3.166032     -0.876867
  H       0.316818     -4.222027     -0.543771
  H      -0.726436     -2.873099     -1.134029
  H       0.918955     -3.080232     -1.789089
  C       1.384998      2.515646      1.766105
  H       0.301192      2.564065      1.960693
  H       1.922455      2.937304      2.638236
  H       1.587686      3.139168      0.880072
  C       2.734874      2.115977     -1.659050
  H       3.362232      1.488286     -2.318307
  H       2.869338      3.171457     -1.963787
  H       3.072289      1.968154     -0.620794
21
Coordinates from ORCA-job Cluster_code_triplet_min E -3015.201660403675
  Fe      0.504839      0.071939     -0.197882
  S       0.860259     -2.071446      0.502277
  S       1.894425      0.762249      1.501026
  S      -1.638454     -0.215719     -0.737526
  S       0.926725      1.643392     -1.744270
  C      -2.280888      0.920103     -2.043764
  H      -1.502723      1.106651     -2.800357
  H      -3.162331      0.466731     -2.533660
  H      -2.578009      1.895040     -1.621251
  C       0.322745     -3.171012     -0.873093
  H       0.318333     -4.226811     -0.539282
  H      -0.688253     -2.881920     -1.197586
  H       0.997556     -3.083464     -1.742236
  C       1.422384      2.519141      1.757795
  H       0.337870      2.605095      1.933014
  H       1.960186      2.929880      2.634757
  H       1.661971      3.130226      0.872146
  C       2.710826      2.116563     -1.648825
  H       3.311268      1.537694     -2.369015
  H       2.841545      3.187130     -1.880736
  H       3.082090      1.896155     -0.635680
21
Coordinates from ORCA-job Cluster_code_triplet_min E -3015.201797243941
  Fe      0.542138      0.067799     -0.235965
  S       0.883846     -2.074363      0.499716
  S       1.930827      0.756042      1.468227
  S      -1.590483     -0.251732     -0.797812
  S       0.939889      1.663620     -1.759517
  C      -2.251257      0.905113     -2.075860
  H      -1.472294      1.134277     -2.820672
  H      -3.116770      0.443649     -2.586796
  H      -2.578517      1.859268     -1.627166
  C       0.266559     -3.197321     -0.822435
  H       0.259317     -4.245074     -0.462722
  H      -0.752896     -2.899116     -1.110094
  H       0.904680     -3.142873     -1.722093
  C       1.430610      2.496191      1.776456
  H       0.345246      2.554643      1.958152
  H       1.964824      2.891168      2.663005
  H       1.654815      3.141765      0.911080
  C       2.711635      2.183732     -1.669447
  H       3.304782      1.688535     -2.453621
  H       2.806668      3.272832     -1.808560
  H       3.118748      1.889460     -0.688027
21
Coordinates from ORCA-job Cluster_code_triplet_min E -3015.201891316858
  Fe      0.547418      0.055339     -0.254941
  S       0.877205     -2.086325      0.498678
  S       1.929643      0.743128      1.456719
  S      -1.576866     -0.278563     -0.839284
  S       0.945352      1.659346     -1.767660
  C      -2.246367      0.909538     -2.083080
  H      -1.471358      1.163197     -2.824246
  H      -3.111308      0.458131     -2.603956
  H      -2.576782      1.849747     -1.607845
  C       0.250567     -3.225103     -0.805107
  H       0.237792     -4.266708     -0.428532
  H      -0.767780     -2.926883     -1.097287
  H       0.887340     -3.189305     -1.706798
  C       1.448104      2.489751      1.756930
  H       0.364487      2.561138      1.945013
  H       1.991129      2.884677      2.638050
  H       1.673857      3.128360      0.886856
  C       2.703122      2.220286     -1.650750
  H       3.317091      1.745149     -2.433215
  H       2.775355      3.314047     -1.777852
  H       3.104365      1.928671     -0.665842
21
Coordinates from ORCA-job Cluster_code_triplet_min E -3015.201988635169
  Fe      0.550826      0.043225     -0.286466
  S       0.850621     -2.099005      0.501707
  S       1.931748      0.723907      1.433928
  S      -1.556575     -0.318283     -0.913678
  S       0.946081      1.665951     -1.774391
  C      -2.235483      0.912786     -2.107454
  H      -1.469212      1.193087     -2.847985
  H      -3.106112      0.480789     -2.635232
  H      -2.559819      1.836326     -1.597145
  C       0.224429     -3.271839     -0.770095
  H       0.193693     -4.298084     -0.355826
  H      -0.786571     -2.975595     -1.089436
  H       0.872219     -3.277971     -1.664694
  C       1.483329      2.477618      1.738747
  H       0.404467      2.570642      1.945207
  H       2.046385      2.863541      2.610918
  H       1.707213      3.111966      0.865434
  C       2.682152      2.283181     -1.627802
  H       3.311667      1.865681     -2.433669
  H       2.717944      3.386236     -1.700416
  H       3.093364      1.963457     -0.655800
21
Coordinates from ORCA-job Cluster_code_triplet_min E -3015.202030335790
  Fe      0.551434      0.046113     -0.296413
  S       0.846726     -2.098122      0.495977
  S       1.937626      0.721509      1.424057
  S      -1.547614     -0.332877     -0.941854
  S       0.940018      1.680270     -1.771067
  C      -2.227534      0.908597     -2.122591
  H      -1.466396      1.189103     -2.868067
  H      -3.105131      0.484938     -2.645526
  H      -2.541297      1.831508     -1.605246
  C       0.213096     -3.285528     -0.756925
  H       0.171982     -4.302913     -0.323094
  H      -0.794507     -2.988502     -1.086604
  H       0.862722     -3.315245     -1.649755
  C       1.494934      2.473309      1.744542
  H       0.419686      2.569340      1.968412
  H       2.071144      2.852912      2.610697
  H       1.707820      3.111264      0.871393
  C       2.672748      2.304854     -1.625844
  H       3.296925      1.909618     -2.448261
  H       2.702149      3.410619     -1.672316
  H       3.095832      1.966848     -0.665666
21
Coordinates from ORCA-job Cluster_code_triplet_min E -3015.202073861964
  Fe      0.548196      0.052077     -0.304138
  S       0.839839     -2.094973      0.490829
  S       1.950090      0.715233      1.411343
  S      -1.539508     -0.350748     -0.973405
  S       0.923228      1.703994     -1.759415
  C      -2.216617      0.895332     -2.149037
  H      -1.459927      1.168916     -2.901241
  H      -3.102267      0.478325     -2.663471
  H      -2.516681      1.821891     -1.630927
  C       0.196076     -3.297223     -0.740441
  H       0.139002     -4.303572     -0.284016
  H      -0.806051     -2.995843     -1.082893
  H       0.849010     -3.356766     -1.629536
  C       1.521432      2.466293      1.749857
  H       0.450546      2.569795      1.990778
  H       2.112262      2.834610      2.610907
  H       1.726498      3.108329      0.878040
  C       2.652520      2.335936     -1.616044
  H       3.267372      1.974401     -2.460955
  H       2.674776      3.443004     -1.625109
  H       3.092569      1.968603     -0.675275
21
Coordinates from ORCA-job Cluster_code_triplet_min E -3015.202103426209
  Fe      0.544990      0.058170     -0.307523
  S       0.837832     -2.089209      0.488622
  S       1.962201      0.711311      1.401076
  S      -1.534005     -0.362290     -0.995340
  S       0.910039      1.720838     -1.752107
  C      -2.210729      0.887179     -2.166954
  H      -1.456039      1.159149     -2.921712
  H      -3.099476      0.472276     -2.677538
  H      -2.505192      1.814496     -1.647274
  C       0.187022     -3.300152     -0.729504
  H       0.120648     -4.300088     -0.260449
  H      -0.811932     -2.995134     -1.077844
  H       0.841238     -3.377143     -1.616529
  C       1.537799      2.459936      1.755758
  H       0.469413      2.563509      2.007338
  H       2.136810      2.820114      2.614583
  H       1.735768      3.107741      0.886664
  C       2.639414      2.352421     -1.611770
  H       3.248142      2.005531     -2.466709
  H       2.660900      3.458990     -1.605710
  H       3.087522      1.969970     -0.681228
21
Coordinates from ORCA-job Cluster_code_triplet_min E -3015.202131897595
  Fe      0.541793      0.062531     -0.311286
  S       0.836575     -2.083575      0.488005
  S       1.975232      0.703722      1.390239
  S      -1.525973     -0.376908     -1.024265
  S       0.897125      1.736912     -1.745129
  C      -2.205417      0.879477     -2.186909
  H      -1.450640      1.159640     -2.938779
  H      -3.091929      0.463804     -2.700587
  H      -2.503430      1.801947     -1.660556
  C       0.175840     -3.303381     -0.716059
  H       0.105265     -4.298317     -0.236768
  H      -0.822294     -2.996110     -1.064452
  H       0.827554     -3.393632     -1.603897
  C       1.557783      2.451309      1.758553
  H       0.492400      2.554591      2.022417
  H       2.166975      2.805024      2.612914
  H       1.746775      3.103900      0.890990
  C       2.625225      2.372246     -1.604337
  H       3.232138      2.035332     -2.463646
  H       2.643694      3.477863     -1.591248
  H       3.077676      1.981241     -0.679349
21
Coordinates from ORCA-job Cluster_code_triplet_min E -3015.202155556371
  Fe      0.541913      0.064734     -0.317274
  S       0.839243     -2.078448      0.487024
  S       1.987327      0.695857      1.379513
  S      -1.513980     -0.391373     -1.057551
  S       0.889985      1.749761     -1.742503
  C      -2.200611      0.875749     -2.204665
  H      -1.443525      1.177121     -2.946273
  H      -3.077833      0.456383     -2.731049
  H      -2.514364      1.785677     -1.665398
  C       0.163831     -3.307715     -0.700413
  H       0.098056     -4.299343     -0.213309
  H      -0.837715     -3.002102     -1.040028
  H       0.806237     -3.404988     -1.594327
  C       1.572386      2.441443      1.762176
  H       0.510880      2.539309      2.043062
  H       2.194151      2.792668      2.608477
  H       1.745508      3.099488      0.895383
  C       2.616185      2.391012     -1.601094
  H       3.223058      2.059579     -2.461948
  H       2.630350      3.495995     -1.585710
  H       3.071284      1.996809     -0.678241
21
Coordinates from ORCA-job Cluster_code_triplet_min E -3015.202185755612
  Fe      0.545992      0.063693     -0.331618
  S       0.843720     -2.075150      0.482732
  S       2.004204      0.681621      1.361747
  S      -1.489358     -0.416535     -1.117471
  S       0.882951      1.768535     -1.739528
  C      -2.190132      0.870191     -2.233934
  H      -1.428970      1.214615     -2.952604
  H      -3.047312      0.445297     -2.788072
  H      -2.537015      1.753231     -1.670370
  C       0.138586     -3.321275     -0.671145
  H       0.087122     -4.306653     -0.169804
  H      -0.871607     -3.022367     -0.990219
  H       0.759029     -3.428940     -1.579135
  C       1.597469      2.425567      1.762770
  H       0.543835      2.517646      2.073725
  H       2.241729      2.775261      2.592681
  H       1.744097      3.089215      0.895398
  C       2.601756      2.428566     -1.592261
  H       3.208964      2.118064     -2.460294
  H       2.602298      3.532872     -1.559468
  H       3.065008      2.024160     -0.677279
21
Coordinates from ORCA-job Cluster_code_triplet_min E -3015.202252681933
  Fe      0.566783      0.059033     -0.376790
  S       0.869034     -2.069669      0.455932
  S       2.053824      0.649444      1.307921
  S      -1.407161     -0.478822     -1.286192
  S       0.868926      1.820570     -1.733164
  C      -2.155910      0.856207     -2.310377
  H      -1.391901      1.324640     -2.952391
  H      -2.950052      0.423774     -2.946288
  H      -2.599401      1.650016     -1.684454
  C       0.065730     -3.355954     -0.588224
  H       0.070651     -4.324361     -0.052881
  H      -0.972598     -3.077783     -0.824812
  H       0.601526     -3.487895     -1.544965
  C       1.653703      2.381640      1.767134
  H       0.627258      2.446022      2.164455
  H       2.356322      2.732081      2.547716
  H       1.717188      3.063403      0.904161
  C       2.567614      2.527267     -1.573888
  H       3.170353      2.274527     -2.463349
  H       2.533870      3.628073     -1.489561
  H       3.056607      2.095402     -0.684132
21
Coordinates from ORCA-job Cluster_code_triplet_min E -3015.202267163204
  Fe      0.594839      0.051829     -0.419063
  S       0.908931     -2.071084      0.412514
  S       2.102187      0.624612      1.258080
  S      -1.321453     -0.526448     -1.431998
  S       0.857131      1.868888     -1.721722
  C      -2.118860      0.837120     -2.377931
  H      -1.366651      1.392024     -2.962632
  H      -2.870550      0.408935     -3.065922
  H      -2.624339      1.556165     -1.709753
  C      -0.002232     -3.375570     -0.516168
  H       0.066251     -4.332760      0.033774
  H      -1.062567     -3.108270     -0.644656
  H       0.425656     -3.522188     -1.523001
  C       1.694555      2.340666      1.770827
  H       0.700350      2.370413      2.246781
  H       2.444387      2.700868      2.501155
  H       1.673669      3.035700      0.916866
  C       2.538484      2.612034     -1.554912
  H       3.135085      2.404913     -2.460666
  H       2.477943      3.708120     -1.428999
  H       3.049549      2.161649     -0.686724
21
Coordinates from ORCA-job Cluster_code_triplet_min E -3015.202352524889
  Fe      0.595561      0.054952     -0.400144
  S       0.922750     -2.069510      0.412897
  S       2.085242      0.637825      1.284188
  S      -1.352441     -0.509601     -1.355184
  S       0.867282      1.858359     -1.720342
  C      -2.130088      0.832594     -2.347390
  H      -1.373236      1.344374     -2.963852
  H      -2.901704      0.396829     -3.008079
  H      -2.608578      1.590762     -1.703530
  C       0.020148     -3.351450     -0.552264
  H       0.083205     -4.319746     -0.021969
  H      -1.039323     -3.078627     -0.680721
  H       0.453281     -3.475953     -1.559548
  C       1.663130      2.355636      1.777540
  H       0.659868      2.388915      2.233746
  H       2.397719      2.722920      2.519745
  H       1.657688      3.041632      0.916107
  C       2.561802      2.573608     -1.569478
  H       3.156907      2.334394     -2.469166
  H       2.521185      3.673992     -1.467037
  H       3.061970      2.135710     -0.689667
21
Coordinates from ORCA-job Cluster_code_triplet_min E -3015.202415666427
  Fe      0.604253      0.046742     -0.410987
  S       0.914458     -2.077996      0.410974
  S       2.090642      0.631917      1.275910
  S      -1.332087     -0.530640     -1.382149
  S       0.861422      1.869602     -1.707218
  C      -2.115020      0.816984     -2.360600
  H      -1.364556      1.329606     -2.983561
  H      -2.895004      0.385903     -3.014407
  H      -2.584089      1.574528     -1.709751
  C      -0.000990     -3.356670     -0.541697
  H       0.056851     -4.319051     -0.000794
  H      -1.059824     -3.078135     -0.666363
  H       0.423298     -3.494565     -1.550932
  C       1.681366      2.353529      1.761525
  H       0.683243      2.398183      2.228065
  H       2.425002      2.720551      2.494756
  H       1.671334      3.031867      0.894382
  C       2.547612      2.599797     -1.547459
  H       3.132520      2.409060     -2.465254
  H       2.496569      3.693973     -1.394078
  H       3.065363      2.132428     -0.694512
21
Coordinates from ORCA-job Cluster_code_triplet_min E -3015.202475936147
  Fe      0.627458      0.042851     -0.437154
  S       0.940173     -2.076374      0.378038
  S       2.119089      0.627135      1.244529
  S      -1.278542     -0.560880     -1.457198
  S       0.852937      1.905910     -1.693392
  C      -2.085377      0.802320     -2.391464
  H      -1.344531      1.352824     -2.992987
  H      -2.853196      0.377413     -3.063490
  H      -2.573738      1.526825     -1.718001
  C      -0.037320     -3.353851     -0.508252
  H       0.064331     -4.312749      0.031763
  H      -1.104769     -3.082246     -0.553259
  H       0.306871     -3.492390     -1.547007
  C       1.685230      2.330553      1.768533
  H       0.722173      2.342062      2.306169
  H       2.465316      2.719755      2.450602
  H       1.589620      3.006994      0.906029
  C       2.538157      2.635603     -1.542888
  H       3.112061      2.458994     -2.470406
  H       2.489337      3.727512     -1.371629
  H       3.067084      2.159355     -0.702684
21
Coordinates from ORCA-job Cluster_code_triplet_min E -3015.202503014738
  Fe      0.620338      0.045049     -0.428412
  S       0.934583     -2.072447      0.381951
  S       2.113637      0.629853      1.249812
  S      -1.289199     -0.557382     -1.443347
  S       0.845107      1.910114     -1.685118
  C      -2.085818      0.805872     -2.386588
  H      -1.339666      1.351230     -2.986677
  H      -2.852472      0.381220     -3.060332
  H      -2.573615      1.535641     -1.718091
  C      -0.029190     -3.351305     -0.517356
  H       0.080235     -4.314168      0.014846
  H      -1.098595     -3.088368     -0.561167
  H       0.317095     -3.478581     -1.557041
  C       1.681378      2.335249      1.769714
  H       0.723130      2.348559      2.316310
  H       2.467103      2.729359      2.442520
  H       1.575765      3.005189      0.903238
  C       2.538119      2.623502     -1.543941
  H       3.114175      2.420677     -2.464334
  H       2.501529      3.719367     -1.398606
  H       3.058727      2.158985     -0.691531
21
Coordinates from ORCA-job Cluster_code_triplet_min E -3015.202524798770
  Fe      0.619086      0.044150     -0.425393
  S       0.929341     -2.068417      0.384687
  S       2.111481      0.627891      1.251634
  S      -1.286692     -0.560420     -1.448934
  S       0.838682      1.920299     -1.674664
  C      -2.084043      0.806463     -2.387284
  H      -1.335362      1.363431     -2.974136
  H      -2.840576      0.382124     -3.072748
  H      -2.584260      1.526270     -1.716371
  C      -0.029576     -3.349544     -0.518830
  H       0.094956     -4.317243      0.002110
  H      -1.101677     -3.096687     -0.549749
  H       0.307965     -3.462869     -1.563051
  C       1.681323      2.335711      1.768422
  H       0.734350      2.347261      2.334915
  H       2.478533      2.740173      2.421237
  H       1.551992      2.996327      0.897725
  C       2.538050      2.620928     -1.541291
  H       3.117338      2.393368     -2.453441
  H       2.510773      3.719964     -1.422451
  H       3.050679      2.168434     -0.676536
21
Coordinates from ORCA-job Cluster_code_triplet_min E -3015.202531853557
  Fe      0.619260      0.043831     -0.425053
  S       0.925120     -2.066501      0.387306
  S       2.108182      0.628021      1.253688
  S      -1.288090     -0.559692     -1.447369
  S       0.840157      1.921852     -1.674573
  C      -2.087197      0.807794     -2.383775
  H      -1.339603      1.363690     -2.973138
  H      -2.846440      0.384168     -3.066628
  H      -2.584588      1.528195     -1.711219
  C      -0.026875     -3.349596     -0.522229
  H       0.093287     -4.317260     -0.000196
  H      -1.098514     -3.096252     -0.562926
  H       0.320388     -3.463644     -1.563176
  C       1.678772      2.337028      1.768897
  H       0.735050      2.347517      2.340875
  H       2.478994      2.745522      2.415348
  H       1.542429      2.994366      0.896684
  C       2.541549      2.618223     -1.541761
  H       3.124735      2.377809     -2.447994
  H       2.516676      3.718668     -1.437376
  H       3.049071      2.173875     -0.669535
21
Coordinates from ORCA-job Cluster_code_triplet_min E -3015.202535944964
  Fe      0.621945      0.042541     -0.427986
  S       0.926651     -2.066425      0.383362
  S       2.110291      0.625076      1.251126
  S      -1.282864     -0.562436     -1.455981
  S       0.837423      1.928214     -1.670853
  C      -2.084676      0.806320     -2.388229
  H      -1.338233      1.364785     -2.976512
  H      -2.843671      0.383535     -3.071771
  H      -2.582936      1.523815     -1.713335
  C      -0.031214     -3.351266     -0.518515
  H       0.083172     -4.315962      0.009851
  H      -1.101497     -3.092603     -0.563582
  H       0.318405     -3.473826     -1.557651
  C       1.682191      2.333721      1.769911
  H       0.745219      2.341093      2.352889
  H       2.488436      2.746169      2.406115
  H       1.533271      2.989054      0.898274
  C       2.538746      2.624985     -1.539916
  H       3.122213      2.382213     -2.445536
  H       2.512483      3.725788     -1.438658
  H       3.047010      2.182822     -0.667153
21
Coordinates from ORCA-job Cluster_code_triplet_min E -3015.202537599156
  Fe      0.622177      0.042105     -0.429171
  S       0.925242     -2.066616      0.383304
  S       2.108524      0.624705      1.251453
  S      -1.283231     -0.562176     -1.456989
  S       0.837822      1.928481     -1.671749
  C      -2.085813      0.807273     -2.387267
  H      -1.340415      1.364372     -2.977932
  H      -2.847437      0.385456     -3.068424
  H      -2.580975      1.525537     -1.711170
  C      -0.030251     -3.353074     -0.518874
  H       0.073054     -4.314290      0.017727
  H      -1.098436     -3.088752     -0.577923
  H       0.330923     -3.485323     -1.552931
  C       1.682311      2.333922      1.770014
  H       0.746210      2.341864      2.354258
  H       2.489648      2.746451      2.404727
  H       1.532858      2.988786      0.898181
  C       2.538813      2.625613     -1.539962
  H       3.122120      2.384966     -2.446415
  H       2.511122      3.726187     -1.436181
  H       3.048098      2.182127     -0.668824
21
Coordinates from ORCA-job Cluster_code_triplet_min E -3015.202537964370
  Fe      0.622247      0.041912     -0.429713
  S       0.926311     -2.066886      0.382185
  S       2.108201      0.624557      1.251151
  S      -1.283500     -0.561975     -1.457389
  S       0.837716      1.928457     -1.672354
  C      -2.085931      0.807851     -2.387026
  H      -1.340479      1.365444     -2.977069
  H      -2.847216      0.386314     -3.068742
  H      -2.581418      1.525597     -1.710715
  C      -0.029831     -3.353547     -0.518752
  H       0.069667     -4.313242      0.021224
  H      -1.097164     -3.086702     -0.581375
  H       0.333953     -3.489963     -1.551400
  C       1.682214      2.333697      1.769900
  H       0.746617      2.341811      2.354934
  H       2.490061      2.746183      2.404011
  H       1.532287      2.988451      0.898113
  C       2.538502      2.625719     -1.540020
  H       3.121814      2.386029     -2.446820
  H       2.510310      3.726177     -1.434859
  H       3.048003      2.181732     -0.669433
