28
Coordinates from ORCA-job Mn_byp_Br_CO3_zero_singlet_triplet_singlet_min
  C   -3.20241180940940      0.31380110007811     -0.08859084510260
  C   -1.15902073879942      1.31784321295590     -0.49024836570155
  C   -1.65986285137897      2.57335290345937     -0.19319020886499
  C   -2.99392490698830      2.68945720957471      0.17119415296418
  C   -3.77064794948582      1.54517751971936      0.22591946884031
  C   -3.94229890489528     -0.95398126744019     -0.07028829789427
  C   -3.81703729005946     -3.23500423893216     -0.43050133603551
  C   -5.14850633672733     -3.41217621413525     -0.09718117390162
  C   -5.89870757707509     -2.30121665500882      0.26177355321716
  C   -5.28607090035125     -1.06022766873591      0.27737085932647
  H   -0.12872870103810      1.19142446302350     -0.78698885107279
  H   -1.01288829503737      3.43686352375957     -0.25517190135700
  H   -3.42310213671932      3.65449358169926      0.40479472806275
  H   -4.81221255236115      1.61035420070238      0.50134562497463
  H   -3.20451461569823     -4.07404294245961     -0.72459945779808
  H   -5.58120726410355     -4.40203068751200     -0.12618648811421
  H   -6.94356778604057     -2.39904805136824      0.52383993233586
  H   -5.84921043430468     -0.18139961539866      0.55217670363162
  N   -3.22241815415229     -2.03873866955350     -0.42234215742470
  N   -1.90548198988024      0.21053978096968     -0.44426760118499
  Mn  -1.28979533250628     -1.66512874828404     -1.04939029959181
  C   0.31075614536962     -1.11489264366890     -1.72029013916154
  C   -1.00205809812434     -3.32824852023194     -1.73417149184191
  C   -0.58151850275900     -2.08458578675361      0.55600136477697
  Br  -2.35346705967921     -1.05482383378428     -3.28450561937026
  O   -0.12882087753176     -2.34969531824835      1.57706727685893
  O   1.31347538594274     -0.76216353852427     -2.14288045869793
  O   -0.83431484620585     -4.37142604590210     -2.17180700187310
