28
Coordinates from ORCA-job Mn_by_singlet_min E -4560.381368323833
  C      -3.205873      0.341911     -0.132799
  C      -1.096514      1.223231     -0.596338
  C      -1.522187      2.496581     -0.176541
  C      -2.845039      2.677499      0.261789
  C      -3.706737      1.575007      0.286061
  C      -3.986854     -0.971513     -0.128783
  C      -3.768233     -3.242538     -0.615354
  C      -5.090063     -3.473596     -0.190850
  C      -5.870578     -2.398484      0.266262
  C      -5.307071     -1.118852      0.298610
  H      -0.091771      1.074102     -0.932887
  H      -0.842628      3.322628     -0.192066
  H      -3.187193      3.642707      0.572986
  H      -4.718978      1.673959      0.618491
  H      -3.164563     -4.053116     -0.967441
  H      -5.498837     -4.461804     -0.216512
  H      -6.879469     -2.556037      0.585584
  H      -5.871781     -0.277936      0.642544
  N      -3.272127     -1.998769     -0.577420
  N      -1.960362      0.199671     -0.574278
  Mn     -1.541665     -1.540083     -1.146143
  C       0.176690     -0.952268     -1.826357
  C      -1.048231     -3.379462     -1.511766
  C      -0.828072     -1.805423      0.635839
  Br     -2.392487     -1.223718     -3.270823
  O      -0.405877     -1.964570      1.658659
  O       1.165746     -0.616774     -2.215801
  O      -0.766812     -4.437873     -1.735784
28
Coordinates from ORCA-job Mn_by_singlet_min E -4560.404186124177
  C      -3.198691      0.316083     -0.131798
  C      -1.128914      1.260131     -0.582814
  C      -1.580483      2.506559     -0.161842
  C      -2.895848      2.652035      0.270313
  C      -3.720287      1.535812      0.286748
  C      -3.959875     -0.964322     -0.125952
  C      -3.811635     -3.229627     -0.598795
  C      -5.123823     -3.426768     -0.179286
  C      -5.870086     -2.342890      0.274233
  C      -5.278192     -1.087804      0.300353
  H      -0.117360      1.147101     -0.922368
  H      -0.913756      3.355844     -0.178733
  H      -3.267613      3.615826      0.585329
  H      -4.744313      1.611688      0.618098
  H      -3.233688     -4.060183     -0.958169
  H      -5.558659     -4.414744     -0.210020
  H      -6.892612     -2.475332      0.595798
  H      -5.829497     -0.225691      0.642343
  N      -3.251653     -2.010418     -0.571848
  N      -1.940011      0.189260     -0.576397
  Mn     -1.491382     -1.572134     -1.148088
  C       0.216888     -1.004420     -1.840123
  C      -0.990185     -3.394100     -1.533714
  C      -0.776191     -1.840980      0.616980
  Br     -2.355897     -1.244542     -3.300502
  O      -0.346297     -2.001554      1.658630
  O       1.222860     -0.673358     -2.249617
  O      -0.690363     -4.466993     -1.759878
28
Coordinates from ORCA-job Mn_by_singlet_min E -4560.418258123935
  C      -3.195774      0.294167     -0.123666
  C      -1.164154      1.294083     -0.570215
  C      -1.631806      2.520988     -0.154281
  C      -2.941980      2.638010      0.278345
  C      -3.732978      1.507532      0.292040
  C      -3.939898     -0.955838     -0.117271
  C      -3.856641     -3.215366     -0.578137
  C      -5.161008     -3.388220     -0.168320
  C      -5.880897     -2.294619      0.281087
  C      -5.260841     -1.061538      0.303938
  H      -0.148023      1.198597     -0.921927
  H      -0.974885      3.382208     -0.180441
  H      -3.338726      3.596042      0.593955
  H      -4.761458      1.563727      0.621468
  H      -3.289276     -4.057823     -0.943800
  H      -5.610571     -4.373316     -0.206476
  H      -6.910961     -2.402272      0.601640
  H      -5.797490     -0.185568      0.641855
  N      -3.238443     -2.024111     -0.559602
  N      -1.921739      0.184412     -0.571639
  Mn     -1.433595     -1.610144     -1.143154
  C       0.252755     -1.059496     -1.839519
  C      -0.924336     -3.398882     -1.559105
  C      -0.721442     -1.885431      0.589813
  Br     -2.321155     -1.256229     -3.339948
  O      -0.287677     -2.047885      1.642651
  O       1.266037     -0.732650     -2.265571
  O      -0.600602     -4.475900     -1.784838
28
Coordinates from ORCA-job Mn_by_singlet_min E -4560.426327350300
  C      -3.195084      0.289064     -0.106543
  C      -1.184300      1.316837     -0.567215
  C      -1.654916      2.541953     -0.161094
  C      -2.962648      2.646336      0.280371
  C      -3.735807      1.505566      0.303067
  C      -3.936244     -0.953883     -0.100288
  C      -3.885293     -3.210846     -0.563677
  C      -5.191072     -3.377720     -0.168277
  C      -5.900478     -2.278099      0.282050
  C      -5.262924     -1.055989      0.311457
  H      -0.171432      1.218352     -0.934807
  H      -1.000779      3.404952     -0.205740
  H      -3.372122      3.600734      0.592658
  H      -4.763690      1.555139      0.634603
  H      -3.313959     -4.050794     -0.936059
  H      -5.643319     -4.361301     -0.220898
  H      -6.934446     -2.371540      0.596485
  H      -5.794005     -0.176229      0.647570
  N      -3.237473     -2.036753     -0.538318
  N      -1.911557      0.189149     -0.558166
  Mn     -1.387071     -1.641785     -1.125788
  C       0.269562     -1.102502     -1.825406
  C      -0.876285     -3.390923     -1.576191
  C      -0.681747     -1.922650      0.569615
  Br     -2.303486     -1.252411     -3.366084
  O      -0.246319     -2.087649      1.625438
  O       1.281348     -0.778745     -2.265030
  O      -0.532020     -4.463785     -1.804852
28
Coordinates from ORCA-job Mn_by_singlet_min E -4560.431596160506
  C      -3.195222      0.293253     -0.086904
  C      -1.190580      1.328183     -0.570943
  C      -1.660549      2.561722     -0.178063
  C      -2.966777      2.661632      0.275580
  C      -3.733563      1.514156      0.314725
  C      -3.941916     -0.956495     -0.080405
  C      -3.900107     -3.214465     -0.552957
  C      -5.213908     -3.382061     -0.173723
  C      -5.920344     -2.278018      0.278186
  C      -5.272982     -1.059254      0.319394
  H      -0.183165      1.216910     -0.949966
  H      -1.007061      3.421880     -0.242919
  H      -3.381120      3.613745      0.583401
  H      -4.758671      1.564217      0.652192
  H      -3.318445     -4.046808     -0.926754
  H      -5.664416     -4.363761     -0.240947
  H      -6.955952     -2.363262      0.584278
  H      -5.803427     -0.179810      0.654802
  N      -3.246527     -2.046807     -0.511800
  N      -1.909136      0.199436     -0.539357
  Mn     -1.351045     -1.668582     -1.101663
  C       0.270135     -1.132530     -1.801898
  C      -0.840221     -3.372634     -1.587950
  C      -0.656806     -1.953806      0.554418
  Br     -2.303104     -1.236226     -3.381213
  O      -0.220801     -2.122784      1.607685
  O       1.274820     -0.808648     -2.251423
  O      -0.476674     -4.434704     -1.826892
28
Coordinates from ORCA-job Mn_by_singlet_min E -4560.433346067601
  C      -3.195168      0.296685     -0.080433
  C      -1.189813      1.327424     -0.573369
  C      -1.662613      2.566427     -0.190412
  C      -2.967689      2.666054      0.267704
  C      -3.734095      1.517116      0.317953
  C      -3.943123     -0.956861     -0.073918
  C      -3.894140     -3.215547     -0.550185
  C      -5.211837     -3.384674     -0.175828
  C      -5.920019     -2.280909      0.275409
  C      -5.274580     -1.060022      0.320905
  H      -0.184039      1.212860     -0.953656
  H      -1.011301      3.427034     -0.263732
  H      -3.382310      3.618213      0.572258
  H      -4.757616      1.567739      0.659406
  H      -3.307941     -4.045284     -0.920549
  H      -5.660585     -4.366181     -0.244143
  H      -6.954781     -2.367271      0.580480
  H      -5.806722     -0.182276      0.656800
  N      -3.249431     -2.045694     -0.502319
  N      -1.912074      0.203648     -0.529244
  Mn     -1.338818     -1.674631     -1.090568
  C       0.272155     -1.136148     -1.784859
  C      -0.850970     -3.368678     -1.597278
  C      -0.652799     -1.966605      0.555185
  Br     -2.300415     -1.218248     -3.380937
  O      -0.217894     -2.140480      1.606393
  O       1.275500     -0.811736     -2.231868
  O      -0.494447     -4.427477     -1.850313
28
Coordinates from ORCA-job Mn_by_singlet_min E -4560.435307907718
  C      -3.196395      0.306503     -0.070518
  C      -1.182773      1.319644     -0.579943
  C      -1.660877      2.569237     -0.216782
  C      -2.964295      2.673753      0.246171
  C      -3.737316      1.526666      0.319271
  C      -3.945986     -0.958167     -0.061587
  C      -3.869480     -3.220556     -0.542158
  C      -5.195226     -3.394711     -0.176649
  C      -5.912191     -2.293805      0.269157
  C      -5.278106     -1.063742      0.323681
  H      -0.177624      1.199184     -0.953712
  H      -1.015058      3.430617     -0.304719
  H      -3.375869      3.629156      0.539949
  H      -4.757227      1.582811      0.667434
  H      -3.276039     -4.047176     -0.902317
  H      -5.642244     -4.375604     -0.247739
  H      -6.947746     -2.386979      0.565275
  H      -5.818629     -0.191315      0.657095
  N      -3.254226     -2.038710     -0.481740
  N      -1.923286      0.212697     -0.507554
  Mn     -1.319944     -1.679446     -1.066670
  C       0.275319     -1.132235     -1.747739
  C      -0.895592     -3.359964     -1.617278
  C      -0.648665     -1.989116      0.566133
  Br     -2.300388     -1.171955     -3.367678
  O      -0.214651     -2.175706      1.611633
  O       1.276582     -0.804006     -2.187304
  O      -0.569630     -4.412599     -1.914830
28
Coordinates from ORCA-job Mn_by_singlet_min E -4560.435569222592
  C      -3.197766      0.308623     -0.070888
  C      -1.180293      1.318269     -0.578217
  C      -1.660818      2.568995     -0.221882
  C      -2.965051      2.675290      0.238884
  C      -3.740694      1.529863      0.315394
  C      -3.946587     -0.957668     -0.061929
  C      -3.860720     -3.222407     -0.534140
  C      -5.187268     -3.397646     -0.171181
  C      -5.908810     -2.297101      0.267891
  C      -5.279908     -1.064028      0.321002
  H      -0.173161      1.198013     -0.946099
  H      -1.017164      3.431981     -0.311704
  H      -3.375912      3.632583      0.528392
  H      -4.760660      1.588292      0.662794
  H      -3.266080     -4.050706     -0.887365
  H      -5.633755     -4.378873     -0.238604
  H      -6.945136     -2.393100      0.560914
  H      -5.824164     -0.192637      0.651037
  N      -3.252650     -2.036014     -0.476993
  N      -1.925458      0.213884     -0.501897
  Mn     -1.315806     -1.678114     -1.062838
  C       0.280970     -1.130303     -1.737295
  C      -0.913545     -3.358195     -1.628602
  C      -0.646166     -1.998238      0.570259
  Br     -2.299720     -1.154306     -3.361183
  O      -0.212001     -2.191337      1.614658
  O       1.283838     -0.800862     -2.173431
  O      -0.603082     -4.409781     -1.948096
28
Coordinates from ORCA-job Mn_by_singlet_min E -4560.435924771509
  C      -3.201353      0.311748     -0.075285
  C      -1.177017      1.318717     -0.568637
  C      -1.663081      2.569485     -0.226453
  C      -2.971619      2.678614      0.222338
  C      -3.750116      1.535940      0.300938
  C      -3.946723     -0.955756     -0.065386
  C      -3.844729     -3.225441     -0.511583
  C      -5.170989     -3.402578     -0.153737
  C      -5.902325     -2.301361      0.267395
  C      -5.283071     -1.063590      0.312644
  H      -0.164211      1.199654     -0.920792
  H      -1.023376      3.435944     -0.314839
  H      -3.382932      3.639388      0.502229
  H      -4.772142      1.597943      0.641907
  H      -3.247763     -4.058605     -0.848631
  H      -5.615910     -4.385526     -0.209958
  H      -6.940634     -2.402209      0.553915
  H      -5.834789     -0.192720      0.632127
  N      -3.245483     -2.031718     -0.467449
  N      -1.926613      0.214998     -0.491237
  Mn     -1.305995     -1.674392     -1.057714
  C       0.298645     -1.131452     -1.719049
  C      -0.950301     -3.354243     -1.657466
  C      -0.635818     -2.020171      0.577037
  Br     -2.297186     -1.116451     -3.346005
  O      -0.200841     -2.228658      1.619168
  O       1.306499     -0.801533     -2.147899
  O      -0.677692     -4.401551     -2.028696
28
Coordinates from ORCA-job Mn_by_singlet_min E -4560.436064460445
  C      -3.203215      0.312542     -0.079230
  C      -1.176826      1.321133     -0.559225
  C      -1.666063      2.571352     -0.224616
  C      -2.978564      2.680830      0.213197
  C      -3.755902      1.538152      0.289018
  C      -3.945895     -0.954533     -0.067730
  C      -3.838205     -3.226178     -0.495925
  C      -5.163923     -3.404223     -0.141594
  C      -5.900090     -2.301578      0.268230
  C      -5.283699     -1.062925      0.307013
  H      -0.160593      1.202172     -0.902245
  H      -1.027500      3.439280     -0.309224
  H      -3.392234      3.642600      0.487057
  H      -4.780583      1.600377      0.622348
  H      -3.239359     -4.061640     -0.824575
  H      -5.607088     -4.388671     -0.190993
  H      -6.939542     -2.403592      0.551037
  H      -5.838306     -0.190871      0.618598
  N      -3.239310     -2.030987     -0.461260
  N      -1.924467      0.214880     -0.485805
  Mn     -1.299561     -1.672450     -1.056023
  C       0.310877     -1.135809     -1.712236
  C      -0.968026     -3.351890     -1.675530
  C      -0.625831     -2.033440      0.578622
  Br     -2.296307     -1.097059     -3.336215
  O      -0.189738     -2.250893      1.618778
  O       1.321594     -0.806900     -2.136901
  O      -0.719213     -4.395199     -2.075689
28
Coordinates from ORCA-job Mn_by_singlet_min E -4560.436164603854
  C      -3.204155      0.312722     -0.082278
  C      -1.177392      1.323983     -0.548669
  C      -1.669017      2.574202     -0.220074
  C      -2.985744      2.683330      0.205479
  C      -3.760180      1.539106      0.276868
  C      -3.944669     -0.953866     -0.068514
  C      -3.834612     -3.226294     -0.481905
  C      -5.160394     -3.405078     -0.131211
  C      -5.899751     -2.300683      0.269166
  C      -5.283276     -1.062538      0.302366
  H      -0.158671      1.203791     -0.884899
  H      -1.029899      3.442203     -0.300109
  H      -3.403125      3.645098      0.473222
  H      -4.788170      1.600103      0.600373
  H      -3.233244     -4.062572     -0.804846
  H      -5.600995     -4.391075     -0.176150
  H      -6.940145     -2.402183      0.548481
  H      -5.838921     -0.188443      0.606406
  N      -3.233404     -2.031999     -0.454388
  N      -1.920685      0.214579     -0.480772
  Mn     -1.293971     -1.671049     -1.054351
  C       0.320560     -1.140591     -1.709475
  C      -0.979617     -3.349408     -1.690759
  C      -0.614520     -2.044389      0.578183
  Br     -2.297989     -1.083632     -3.325980
  O      -0.176529     -2.269354      1.615673
  O       1.332885     -0.812592     -2.130762
  O      -0.751937     -4.388894     -2.112194
28
Coordinates from ORCA-job Mn_by_singlet_min E -4560.436214541588
  C      -3.204026      0.312740     -0.082705
  C      -1.177063      1.325097     -0.541325
  C      -1.670006      2.576162     -0.216709
  C      -2.989308      2.685164      0.200636
  C      -3.761830      1.539419      0.269429
  C      -3.943898     -0.954001     -0.067433
  C      -3.833109     -3.226664     -0.474206
  C      -5.159772     -3.405706     -0.126220
  C      -5.900380     -2.300288      0.269198
  C      -5.282799     -1.062676      0.300043
  H      -0.157331      1.203275     -0.874387
  H      -1.029442      3.443209     -0.294626
  H      -3.409670      3.646690      0.463565
  H      -4.792191      1.599421      0.585453
  H      -3.229636     -4.062619     -0.794483
  H      -5.598193     -4.392649     -0.170220
  H      -6.941334     -2.400670      0.546081
  H      -5.838396     -0.187120      0.599790
  N      -3.230543     -2.033566     -0.448872
  N      -1.917725      0.214502     -0.476454
  Mn     -1.291302     -1.670260     -1.052319
  C       0.323736     -1.141925     -1.709316
  C      -0.984164     -3.346939     -1.698964
  C      -0.607257     -2.050299      0.577035
  Br     -2.301986     -1.077842     -3.318021
  O      -0.167293     -2.279861      1.612227
  O       1.336040     -0.813425     -2.129018
  O      -0.768685     -4.384691     -2.129295
28
Coordinates from ORCA-job Mn_by_singlet_min E -4560.436254180123
  C      -3.203428      0.312751     -0.082042
  C      -1.175340      1.325083     -0.533724
  C      -1.669786      2.577458     -0.213717
  C      -2.991420      2.686812      0.195316
  C      -3.763002      1.539897      0.262291
  C      -3.943234     -0.954485     -0.065554
  C      -3.831252     -3.227777     -0.467123
  C      -5.159384     -3.406654     -0.122320
  C      -5.901009     -2.300421      0.268340
  C      -5.282602     -1.062923      0.297797
  H      -0.154635      1.201632     -0.863277
  H      -1.027302      3.443064     -0.290333
  H      -3.414711      3.648272      0.452810
  H      -4.795671      1.599516      0.570638
  H      -3.225671     -4.063368     -0.784452
  H      -5.595615     -4.394415     -0.166317
  H      -6.942619     -2.399494      0.542469
  H      -5.838305     -0.186200      0.593734
  N      -3.228678     -2.035422     -0.442604
  N      -1.914838      0.214437     -0.470821
  Mn     -1.289666     -1.669309     -1.049564
  C       0.324019     -1.140527     -1.709766
  C      -0.987660     -3.343479     -1.706320
  C      -0.600803     -2.055753      0.575329
  Br     -2.308705     -1.073366     -3.308916
  O      -0.158202     -2.290332      1.607907
  O       1.335551     -0.809983     -2.128555
  O      -0.783597     -4.380537     -2.142344
28
Coordinates from ORCA-job Mn_by_singlet_min E -4560.436287737588
  C      -3.202580      0.312681     -0.081206
  C      -1.172045      1.323992     -0.524810
  C      -1.668480      2.577771     -0.210642
  C      -2.992591      2.688062      0.188866
  C      -3.764363      1.540685      0.254292
  C      -3.942575     -0.955071     -0.063793
  C      -3.828495     -3.229716     -0.459143
  C      -5.158339     -3.407933     -0.118105
  C      -5.901215     -2.300864      0.266649
  C      -5.282841     -1.062933      0.294751
  H      -0.149829      1.199353     -0.848985
  H      -1.023952      3.441873     -0.285999
  H      -3.418709      3.649809      0.440078
  H      -4.799375      1.600825      0.554453
  H      -3.220946     -4.065470     -0.772126
  H      -5.592573     -4.396451     -0.161660
  H      -6.943685     -2.398630      0.537527
  H      -5.839323     -0.185378      0.586606
  N      -3.227275     -2.037327     -0.435625
  N      -1.911932      0.214100     -0.463695
  Mn     -1.288770     -1.668030     -1.046659
  C       0.322209     -1.136239     -1.710500
  C      -0.991338     -3.338913     -1.714252
  C      -0.594721     -2.061899      0.572636
  Br     -2.318132     -1.068908     -3.298709
  O      -0.148758     -2.302777      1.602219
  O       1.332422     -0.801885     -2.128918
  O      -0.799355     -4.376251     -2.154367
28
Coordinates from ORCA-job Mn_by_singlet_min E -4560.436312464439
  C      -3.201691      0.312498     -0.081094
  C      -1.167245      1.321886     -0.513579
  C      -1.666187      2.576900     -0.206884
  C      -2.993287      2.688789      0.180944
  C      -3.766288      1.541818      0.244667
  C      -3.941889     -0.955536     -0.063028
  C      -3.824617     -3.232363     -0.449099
  C      -5.156089     -3.409515     -0.112365
  C      -5.900797     -2.301338      0.264328
  C      -5.283587     -1.062461      0.290260
  H      -0.142615      1.196689     -0.829453
  H      -1.019858      3.439825     -0.280250
  H      -3.422037      3.651310      0.424766
  H      -4.803737      1.603523      0.535877
  H      -3.215297     -4.069125     -0.755696
  H      -5.588796     -4.398736     -0.153827
  H      -6.944389     -2.397955      0.531335
  H      -5.841861     -0.184395      0.577075
  N      -3.225880     -2.039062     -0.428195
  N      -1.908944      0.213197     -0.455131
  Mn     -1.288378     -1.666427     -1.044383
  C       0.318910     -1.129083     -1.711470
  C      -0.995768     -3.333281     -1.723681
  C      -0.588691     -2.069644      0.568315
  Br     -2.330102     -1.063625     -3.288111
  O      -0.138790     -2.318620      1.594478
  O       1.327330     -0.789056     -2.129967
  O      -0.816984     -4.371738     -2.166949
28
Coordinates from ORCA-job Mn_by_singlet_min E -4560.436325015263
  C      -3.201339      0.312363     -0.082442
  C      -1.163458      1.319879     -0.505084
  C      -1.663970      2.575272     -0.203538
  C      -2.993389      2.688678      0.175648
  C      -3.767932      1.542762      0.237613
  C      -3.941600     -0.955526     -0.064209
  C      -3.821670     -3.234231     -0.441624
  C      -5.153686     -3.410606     -0.107278
  C      -5.900018     -2.301417      0.262839
  C      -5.284485     -1.061649      0.286150
  H      -0.136584      1.194848     -0.813443
  H      -1.017002      3.437995     -0.274363
  H      -3.423204      3.652065      0.414693
  H      -4.806847      1.606240      0.523151
  H      -3.211514     -4.072304     -0.742902
  H      -5.586154     -4.400125     -0.145350
  H      -6.944366     -2.397664      0.527418
  H      -5.844700     -0.183533      0.569045
  N      -3.225004     -2.039719     -0.424304
  N      -1.907269      0.212048     -0.449678
  Mn     -1.288690     -1.665366     -1.044484
  C       0.315849     -1.122632     -1.712601
  C      -0.998483     -3.329593     -1.730015
  C      -0.585579     -2.075378      0.564008
  Br     -2.338784     -1.060250     -3.283163
  O      -0.133244     -2.330373      1.587970
  O       1.322760     -0.777773     -2.131603
  O      -0.827201     -4.369535     -2.173574
28
Coordinates from ORCA-job Mn_by_singlet_min E -4560.436332878254
  C      -3.201479      0.312426     -0.084741
  C      -1.161120      1.318469     -0.499275
  C      -1.662220      2.573743     -0.200462
  C      -2.993400      2.688349      0.172926
  C      -3.769158      1.543492      0.232924
  C      -3.941668     -0.955163     -0.066523
  C      -3.819812     -3.235137     -0.436685
  C      -5.151603     -3.411267     -0.103055
  C      -5.899288     -2.301211      0.262301
  C      -5.285268     -1.060832      0.282803
  H      -0.132505      1.193681     -0.801935
  H      -1.015396      3.436891     -0.268409
  H      -3.423194      3.652483      0.409475
  H      -4.808888      1.608342      0.515206
  H      -3.209259     -4.074265     -0.734344
  H      -5.584554     -4.400817     -0.137338
  H      -6.944003     -2.397684      0.525727
  H      -5.847088     -0.182782      0.562752
  N      -3.224358     -2.039614     -0.423192
  N      -1.906544      0.210982     -0.447124
  Mn     -1.289210     -1.664902     -1.046196
  C       0.313723     -1.118123     -1.713964
  C      -0.999798     -3.327914     -1.733436
  C      -0.584368     -2.079188      0.560341
  Br     -2.344090     -1.058383     -3.282725
  O      -0.131052     -2.338053      1.583126
  O       1.319460     -0.769858     -2.133647
  O      -0.831422     -4.369189     -2.175648
28
Coordinates from ORCA-job Mn_by_singlet_min E -4560.436337870408
  C      -3.201832      0.312706     -0.086720
  C      -1.160222      1.317930     -0.496072
  C      -1.661255      2.573054     -0.198079
  C      -2.993547      2.688326      0.172111
  C      -3.769824      1.543984      0.230351
  C      -3.941913     -0.954742     -0.068492
  C      -3.818917     -3.235259     -0.434158
  C      -5.150318     -3.411615     -0.100361
  C      -5.898919     -2.301027      0.262365
  C      -5.285703     -1.060388      0.280703
  H      -0.130695      1.193001     -0.795763
  H      -1.014716      3.436637     -0.263687
  H      -3.422966      3.652881      0.407719
  H      -4.810022      1.609364      0.510811
  H      -3.207979     -4.074762     -0.730140
  H      -5.583664     -4.401138     -0.131930
  H      -6.943694     -2.397950      0.525462
  H      -5.848351     -0.182267      0.558772
  N      -3.223837     -2.039267     -0.423348
  N      -1.906303      0.210422     -0.446435
  Mn     -1.289507     -1.664865     -1.047925
  C       0.312789     -1.116222     -1.715336
  C      -1.000379     -3.327667     -1.734560
  C      -0.583904     -2.081226      0.558173
  Br     -2.346642     -1.057405     -3.284060
  O      -0.130580     -2.342061      1.580443
  O       1.317756     -0.766295     -2.135616
  O      -0.832418     -4.369671     -2.175345
28
Coordinates from ORCA-job Mn_by_singlet_min E -4560.436340991585
  C      -3.202174      0.313114     -0.088115
  C      -1.159764      1.317775     -0.493621
  C      -1.660606      2.572917     -0.195951
  C      -2.993758      2.688620      0.171765
  C      -3.770242      1.544434      0.228383
  C      -3.942168     -0.954376     -0.069827
  C      -3.818240     -3.235158     -0.432420
  C      -5.149434     -3.411894     -0.098468
  C      -5.898770     -2.300990      0.262435
  C      -5.285947     -1.060208      0.279133
  H      -0.129745      1.192366     -0.791620
  H      -1.014142      3.436704     -0.259673
  H      -3.422893      3.653430      0.406688
  H      -4.810925      1.609885      0.507040
  H      -3.206738     -4.074619     -0.727470
  H      -5.582828     -4.401461     -0.128251
  H      -6.943537     -2.398357      0.525292
  H      -5.848989     -0.181862      0.555684
  N      -3.223303     -2.038977     -0.423392
  N      -1.906069      0.210224     -0.445944
  Mn     -1.289641     -1.664937     -1.049111
  C       0.312176     -1.115403     -1.716918
  C      -1.000948     -3.327793     -1.734875
  C      -0.583267     -2.082722      0.556822
  Br     -2.348798     -1.056488     -3.285069
  O      -0.130161     -2.345095      1.578656
  O       1.316410     -0.764399     -2.137848
  O      -0.833065     -4.370255     -2.174440
28
Coordinates from ORCA-job Mn_by_singlet_min E -4560.436342713680
  C      -3.202370      0.313497     -0.088676
  C      -1.159415      1.317783     -0.491773
  C      -1.660171      2.573083     -0.194348
  C      -2.993885      2.689041      0.171510
  C      -3.770481      1.544825      0.226958
  C      -3.942312     -0.954134     -0.070348
  C      -3.817647     -3.235055     -0.431289
  C      -5.148891     -3.412086     -0.097484
  C      -5.898737     -2.301083      0.262255
  C      -5.286051     -1.060195      0.278085
  H      -0.129198      1.191817     -0.788953
  H      -1.013527      3.436809     -0.256908
  H      -3.422947      3.653992      0.405793
  H      -4.811629      1.610147      0.503919
  H      -3.205578     -4.074296     -0.725809
  H      -5.582024     -4.401772     -0.126520
  H      -6.943520     -2.398754      0.524787
  H      -5.849200     -0.181588      0.553581
  N      -3.222843     -2.038819     -0.423034
  N      -1.905794      0.210303     -0.445249
  Mn     -1.289717     -1.665025     -1.049530
  C       0.311541     -1.115073     -1.718559
  C      -1.001504     -3.327996     -1.734689
  C      -0.582457     -2.083774      0.556189
  Br     -2.351004     -1.055643     -3.285164
  O      -0.129556     -2.347490      1.577621
  O       1.315048     -0.763228     -2.140234
  O      -0.833697     -4.370810     -2.173249
28
Coordinates from ORCA-job Mn_by_singlet_min E -4560.436343433379
  C      -3.202413      0.313797     -0.088587
  C      -1.159034      1.317844     -0.490291
  C      -1.659870      2.573350     -0.193212
  C      -2.993921      2.689450      0.171215
  C      -3.770642      1.545171      0.225954
  C      -3.942302     -0.953983     -0.070286
  C      -3.817056     -3.235001     -0.430534
  C      -5.148520     -3.412171     -0.097201
  C      -5.898712     -2.301214      0.261781
  C      -5.286072     -1.060228      0.277389
  H      -0.128748      1.191431     -0.787056
  H      -1.012900      3.436863     -0.255207
  H      -3.423091      3.654483      0.404840
  H      -4.812197      1.610348      0.501417
  H      -3.204542     -4.074040     -0.724649
  H      -5.581228     -4.402023     -0.126214
  H      -6.943569     -2.399044      0.523861
  H      -5.849207     -0.181403      0.552214
  N      -3.222430     -2.038738     -0.422362
  N      -1.905492      0.210538     -0.444294
  Mn     -1.289800     -1.665131     -1.049391
  C       0.310766     -1.114913     -1.720270
  C      -1.002036     -3.328256     -1.734156
  C      -0.581543     -2.084553      0.556017
  Br     -2.353420     -1.054845     -3.284529
  O      -0.128844     -2.349617      1.577095
  O       1.313498     -0.762218     -2.142858
  O      -0.834241     -4.371420     -2.171805
