28
Coordinates from ORCA-job Mn_byp_Br_CO3_zero_singlet_triplet_triplet_min E -4560.324660923326
  C      -3.205873      0.341911     -0.132799
  C      -1.096514      1.223231     -0.596338
  C      -1.522187      2.496581     -0.176541
  C      -2.845039      2.677499      0.261789
  C      -3.706737      1.575007      0.286061
  C      -3.986854     -0.971513     -0.128783
  C      -3.768233     -3.242538     -0.615354
  C      -5.090063     -3.473596     -0.190850
  C      -5.870578     -2.398484      0.266262
  C      -5.307071     -1.118852      0.298610
  H      -0.091771      1.074102     -0.932887
  H      -0.842628      3.322628     -0.192066
  H      -3.187193      3.642707      0.572986
  H      -4.718978      1.673959      0.618491
  H      -3.164563     -4.053116     -0.967441
  H      -5.498837     -4.461804     -0.216512
  H      -6.879469     -2.556037      0.585584
  H      -5.871781     -0.277936      0.642544
  N      -3.272127     -1.998769     -0.577420
  N      -1.960362      0.199671     -0.574278
  Mn     -1.541665     -1.540083     -1.146143
  C       0.176690     -0.952268     -1.826357
  C      -1.048231     -3.379462     -1.511766
  C      -0.828072     -1.805423      0.635839
  Br     -2.392487     -1.223718     -3.270823
  O      -0.405877     -1.964570      1.658659
  O       1.165746     -0.616774     -2.215801
  O      -0.766812     -4.437873     -1.735784
28
Coordinates from ORCA-job Mn_byp_Br_CO3_zero_singlet_triplet_triplet_min E -4560.349615797897
  C      -3.212341      0.308467     -0.132586
  C      -1.117043      1.264493     -0.579121
  C      -1.566680      2.504232     -0.159993
  C      -2.903739      2.647511      0.273675
  C      -3.729013      1.540084      0.288125
  C      -3.959836     -0.950231     -0.127781
  C      -3.810536     -3.234630     -0.600841
  C      -5.116916     -3.434284     -0.178049
  C      -5.870193     -2.335803      0.277756
  C      -5.286975     -1.084487      0.302898
  H      -0.102298      1.154446     -0.911865
  H      -0.897773      3.351194     -0.170058
  H      -3.275779      3.610112      0.591822
  H      -4.752456      1.620340      0.619205
  H      -3.234908     -4.068576     -0.958674
  H      -5.548425     -4.423391     -0.204589
  H      -6.891492     -2.469086      0.602891
  H      -5.841728     -0.225862      0.647186
  N      -3.250661     -2.012505     -0.580945
  N      -1.933160      0.190311     -0.579815
  Mn     -1.492436     -1.567534     -1.160633
  C       0.222105     -1.003087     -1.853788
  C      -0.986061     -3.400178     -1.536550
  C      -0.787291     -1.831083      0.625043
  Br     -2.351300     -1.265209     -3.306761
  O      -0.365573     -1.987207      1.661118
  O       1.225545     -0.676162     -2.262513
  O      -0.690601     -4.467401     -1.766276
28
Coordinates from ORCA-job Mn_byp_Br_CO3_zero_singlet_triplet_triplet_min E -4560.361304931141
  C      -3.222294      0.275781     -0.125109
  C      -1.144674      1.304006     -0.562857
  C      -1.604049      2.517588     -0.148651
  C      -2.951263      2.629360      0.287357
  C      -3.742960      1.519092      0.295742
  C      -3.936624     -0.925733     -0.121243
  C      -3.854989     -3.222968     -0.582377
  C      -5.146279     -3.404602     -0.166817
  C      -5.877215     -2.285409      0.289165
  C      -5.276237     -1.060586      0.309911
  H      -0.123460      1.213004     -0.906254
  H      -0.945449      3.375466     -0.163583
  H      -3.345594      3.585880      0.608191
  H      -4.770144      1.586225      0.624533
  H      -3.292307     -4.070271     -0.949709
  H      -5.590329     -4.390506     -0.199409
  H      -6.904128     -2.397538      0.616291
  H      -5.820611     -0.192719      0.653618
  N      -3.236858     -2.026281     -0.577323
  N      -1.910084      0.186632     -0.578204
  Mn     -1.438506     -1.596782     -1.171764
  C       0.264653     -1.052542     -1.872227
  C      -0.918535     -3.415941     -1.569002
  C      -0.754467     -1.858922      0.620310
  Br     -2.306041     -1.312706     -3.353761
  O      -0.344123     -2.007785      1.666968
  O       1.272382     -0.734816     -2.297588
  O      -0.607380     -4.482449     -1.807326
28
Coordinates from ORCA-job Mn_byp_Br_CO3_zero_singlet_triplet_triplet_min E -4560.364304098970
  C      -3.224098      0.277727     -0.110162
  C      -1.151883      1.320467     -0.563941
  C      -1.605388      2.536982     -0.154030
  C      -2.951528      2.644748      0.291604
  C      -3.736621      1.533666      0.306900
  C      -3.939004     -0.923723     -0.107459
  C      -3.869400     -3.223638     -0.579183
  C      -5.161241     -3.411469     -0.171465
  C      -5.889916     -2.290900      0.291283
  C      -5.285519     -1.070694      0.319690
  H      -0.135320      1.222225     -0.922133
  H      -0.947751      3.394655     -0.183119
  H      -3.347409      3.601165      0.610617
  H      -4.762859      1.602011      0.638432
  H      -3.301842     -4.064298     -0.957736
  H      -5.604294     -4.396697     -0.217914
  H      -6.917987     -2.401567      0.615069
  H      -5.830165     -0.204422      0.666767
  N      -3.238569     -2.034522     -0.566042
  N      -1.902781      0.193872     -0.569040
  Mn     -1.416205     -1.607193     -1.167203
  C       0.275913     -1.072349     -1.872427
  C      -0.894515     -3.416384     -1.582266
  C      -0.750879     -1.868701      0.629320
  Br     -2.288939     -1.335815     -3.372008
  O      -0.352752     -2.011904      1.680577
  O       1.280816     -0.760059     -2.307006
  O      -0.577428     -4.478705     -1.828244
28
Coordinates from ORCA-job Mn_byp_Br_CO3_zero_singlet_triplet_triplet_min E -4560.366943086950
  C      -3.223757      0.283177     -0.088438
  C      -1.158275      1.334164     -0.570058
  C      -1.606144      2.560098     -0.167013
  C      -2.947292      2.663428      0.294001
  C      -3.727399      1.547884      0.322813
  C      -3.943230     -0.924586     -0.086416
  C      -3.881515     -3.224447     -0.578231
  C      -5.179127     -3.419879     -0.180191
  C      -5.903538     -2.299698      0.293648
  C      -5.292863     -1.081598      0.334754
  H      -0.149938      1.221553     -0.946759
  H      -0.951242      3.416980     -0.217564
  H      -3.343933      3.619038      0.610711
  H      -4.751990      1.614085      0.661303
  H      -3.304439     -4.053354     -0.968555
  H      -5.621465     -4.402700     -0.245189
  H      -6.931716     -2.408266      0.613866
  H      -5.834462     -0.215393      0.687801
  N      -3.245203     -2.042304     -0.546925
  N      -1.898176      0.205280     -0.553316
  Mn     -1.387629     -1.619782     -1.157597
  C       0.284673     -1.093028     -1.866383
  C      -0.864801     -3.410505     -1.603549
  C      -0.758177     -1.880511      0.646282
  Br     -2.265945     -1.370754     -3.397360
  O      -0.384363     -2.014021      1.705104
  O       1.283281     -0.786342     -2.312760
  O      -0.538900     -4.464041     -1.865096
28
Coordinates from ORCA-job Mn_byp_Br_CO3_zero_singlet_triplet_triplet_min E -4560.368037989290
  C      -3.221099      0.284919     -0.074418
  C      -1.160643      1.336743     -0.577451
  C      -1.609525      2.567966     -0.180379
  C      -2.945101      2.667802      0.291964
  C      -3.723077      1.548142      0.333621
  C      -3.943289     -0.926207     -0.071888
  C      -3.884750     -3.223704     -0.579120
  C      -5.187254     -3.418946     -0.186346
  C      -5.906487     -2.300065      0.295369
  C      -5.290787     -1.082301      0.346492
  H      -0.156769      1.217811     -0.962675
  H      -0.958567      3.426047     -0.245543
  H      -3.342737      3.622719      0.607543
  H      -4.745167      1.610862      0.679827
  H      -3.303604     -4.047367     -0.973262
  H      -5.632325     -4.399072     -0.261951
  H      -6.934631     -2.406114      0.614412
  H      -5.827944     -0.215698      0.704905
  N      -3.250901     -2.043616     -0.532968
  N      -1.898857      0.211094     -0.541839
  Mn     -1.369723     -1.627579     -1.150080
  C       0.287026     -1.100707     -1.857343
  C      -0.845660     -3.401941     -1.621494
  C      -0.773067     -1.889317      0.659317
  Br     -2.249751     -1.398398     -3.414318
  O      -0.422299     -2.015677      1.725668
  O       1.281819     -0.794847     -2.310090
  O      -0.512395     -4.448074     -1.899068
28
Coordinates from ORCA-job Mn_byp_Br_CO3_zero_singlet_triplet_triplet_min E -4560.368568754678
  C      -3.217226      0.285091     -0.067244
  C      -1.159936      1.334299     -0.584912
  C      -1.613083      2.567127     -0.192665
  C      -2.943835      2.665234      0.287793
  C      -3.721396      1.543233      0.340467
  C      -3.941241     -0.928004     -0.063324
  C      -3.883241     -3.222997     -0.580082
  C      -5.188416     -3.413955     -0.188665
  C      -5.903433     -2.296735      0.298153
  C      -5.285372     -1.078416      0.355813
  H      -0.157185      1.215966     -0.971494
  H      -0.966000      3.427558     -0.266666
  H      -3.342101      3.620009      0.602973
  H      -4.740569      1.604239      0.694278
  H      -3.302471     -4.046533     -0.973476
  H      -5.637791     -4.391922     -0.268457
  H      -6.931507     -2.401107      0.617855
  H      -5.819575     -0.212375      0.718951
  N      -3.255020     -2.041333     -0.524499
  N      -1.901766      0.212754     -0.535131
  Mn     -1.358765     -1.632255     -1.145572
  C       0.286904     -1.100205     -1.846919
  C      -0.833327     -3.392299     -1.638208
  C      -0.793979     -1.897419      0.668058
  Br     -2.237124     -1.422540     -3.426684
  O      -0.467033     -2.018848      1.742537
  O       1.280644     -0.792005     -2.301374
  O      -0.493718     -4.432084     -1.932625
28
Coordinates from ORCA-job Mn_byp_Br_CO3_zero_singlet_triplet_triplet_min E -4560.368744211967
  C      -3.214490      0.284761     -0.067875
  C      -1.158066      1.331422     -0.589503
  C      -1.614452      2.562998     -0.198968
  C      -2.943424      2.661561      0.284714
  C      -3.721549      1.539526      0.341944
  C      -3.938935     -0.928591     -0.062382
  C      -3.880147     -3.222734     -0.580190
  C      -5.184773     -3.410060     -0.186346
  C      -5.898530     -2.293721      0.302218
  C      -5.281315     -1.074498      0.360403
  H      -0.154211      1.217500     -0.973386
  H      -0.969280      3.425224     -0.274588
  H      -3.341369      3.616590      0.600341
  H      -4.738889      1.601347      0.700101
  H      -3.302106     -4.048677     -0.971672
  H      -5.637050     -4.387264     -0.264475
  H      -6.926195     -2.398271      0.623996
  H      -5.815495     -0.209761      0.726037
  N      -3.255895     -2.038180     -0.523921
  N      -1.903971      0.211271     -0.535251
  Mn     -1.355225     -1.633422     -1.145433
  C       0.287116     -1.095652     -1.839373
  C      -0.829405     -3.386053     -1.649266
  C      -0.812301     -1.903310      0.670352
  Br     -2.229606     -1.437738     -3.432938
  O      -0.503473     -2.023212      1.750907
  O       1.282183     -0.784392     -2.291047
  O      -0.486711     -4.422188     -1.955517
28
Coordinates from ORCA-job Mn_byp_Br_CO3_zero_singlet_triplet_triplet_min E -4560.368830946001
  C      -3.212780      0.284875     -0.071877
  C      -1.156476      1.329748     -0.593013
  C      -1.614105      2.559394     -0.202141
  C      -2.942904      2.659405      0.282929
  C      -3.721776      1.538250      0.341012
  C      -3.937053     -0.928171     -0.064706
  C      -3.877101     -3.222454     -0.579911
  C      -5.179516     -3.408216     -0.181560
  C      -5.893604     -2.292250      0.307767
  C      -5.278644     -1.072041      0.363226
  H      -0.151263      1.220418     -0.974059
  H      -0.969559      3.422628     -0.276336
  H      -3.339678      3.614751      0.599720
  H      -4.737962      1.601830      0.701725
  H      -3.301832     -4.050569     -0.970558
  H      -5.633206     -4.385420     -0.255806
  H      -6.920356     -2.398237      0.632691
  H      -5.814069     -0.208898      0.730450
  N      -3.255092     -2.035196     -0.527389
  N      -1.905090      0.209079     -0.539154
  Mn     -1.354134     -1.633028     -1.147327
  C       0.288621     -1.090389     -1.833081
  C      -0.828744     -3.381523     -1.658201
  C      -0.830332     -1.908712      0.669886
  Br     -2.223076     -1.450925     -3.437313
  O      -0.539215     -2.028614      1.755845
  O       1.285891     -0.776421     -2.279681
  O      -0.484508     -4.414838     -1.974256
28
Coordinates from ORCA-job Mn_byp_Br_CO3_zero_singlet_triplet_triplet_min E -4560.368886040155
  C      -3.211742      0.285713     -0.077176
  C      -1.155680      1.329560     -0.596911
  C      -1.612614      2.557482     -0.204070
  C      -2.941778      2.659111      0.282249
  C      -3.721193      1.538978      0.339204
  C      -3.935615     -0.926949     -0.068183
  C      -3.874488     -3.221722     -0.579935
  C      -5.173813     -3.408129     -0.175480
  C      -5.888704     -2.292411      0.315112
  C      -5.276403     -1.071254      0.366101
  H      -0.149680      1.223634     -0.976673
  H      -0.967954      3.421044     -0.275849
  H      -3.336720      3.614668      0.600938
  H      -4.736606      1.604140      0.701691
  H      -3.301211     -4.050742     -0.971657
  H      -5.627680     -4.385740     -0.245230
  H      -6.913931     -2.400679      0.644395
  H      -5.813137     -0.209674      0.734979
  N      -3.253519     -2.032433     -0.533251
  N      -1.905289      0.207286     -0.545637
  Mn     -1.353466     -1.631722     -1.150050
  C       0.291617     -1.085285     -1.826686
  C      -0.828949     -3.377418     -1.666725
  C      -0.850724     -1.914554      0.668468
  Br     -2.215337     -1.466309     -3.441719
  O      -0.580873     -2.035261      1.760111
  O       1.291466     -0.769166     -2.266697
  O      -0.483541     -4.407690     -1.992437
28
Coordinates from ORCA-job Mn_byp_Br_CO3_zero_singlet_triplet_triplet_min E -4560.368915860573
  C      -3.211353      0.287097     -0.081403
  C      -1.156088      1.330949     -0.601286
  C      -1.610847      2.558094     -0.205373
  C      -2.940082      2.660504      0.282726
  C      -3.719503      1.540840      0.337890
  C      -3.934830     -0.925398     -0.070879
  C      -3.873042     -3.220424     -0.581058
  C      -5.169591     -3.409314     -0.170560
  C      -5.884734     -2.294032      0.322548
  C      -5.274220     -1.072267      0.369473
  H      -0.150465      1.225911     -0.982475
  H      -0.965676      3.421353     -0.275420
  H      -3.333225      3.615999      0.603623
  H      -4.734545      1.606222      0.701545
  H      -3.300266     -4.048469     -0.975878
  H      -5.622586     -4.387461     -0.237314
  H      -6.908165     -2.404553      0.656480
  H      -5.811128     -0.211610      0.740414
  N      -3.252120     -2.030434     -0.539407
  N      -1.904805      0.206999     -0.552719
  Mn     -1.352740     -1.629877     -1.152287
  C       0.295360     -1.081779     -1.821119
  C      -0.829000     -3.374239     -1.672932
  C      -0.869882     -1.919596      0.667353
  Br     -2.207306     -1.482047     -3.445814
  O      -0.621738     -2.041685      1.764009
  O       1.297380     -0.764636     -2.255060
  O      -0.482367     -4.401670     -2.006197
28
Coordinates from ORCA-job Mn_byp_Br_CO3_zero_singlet_triplet_triplet_min E -4560.368932238015
  C      -3.211360      0.288352     -0.082866
  C      -1.157352      1.333091     -0.605324
  C      -1.609887      2.560413     -0.206445
  C      -2.938456      2.662311      0.283856
  C      -3.717392      1.542332      0.338025
  C      -3.934579     -0.924262     -0.071548
  C      -3.872975     -3.218961     -0.583512
  C      -5.168113     -3.410542     -0.169056
  C      -5.882446     -2.296034      0.327520
  C      -5.272125     -1.074152      0.372883
  H      -0.153040      1.226801     -0.989880
  H      -0.964250      3.423119     -0.276432
  H      -3.330664      3.617478      0.606518
  H      -4.732335      1.606387      0.702478
  H      -3.299556     -4.044893     -0.982091
  H      -5.619933     -4.389055     -0.235630
  H      -6.904468     -2.407832      0.664948
  H      -5.807727     -0.213593      0.746212
  N      -3.251643     -2.029494     -0.543596
  N      -1.904290      0.208374     -0.557882
  Mn     -1.352158     -1.628041     -1.153126
  C       0.298392     -1.080593     -1.817876
  C      -0.828676     -3.372853     -1.674695
  C      -0.882210     -1.922167      0.667314
  Br     -2.201304     -1.493369     -3.448662
  O      -0.649790     -2.046033      1.767087
  O       1.301556     -0.763622     -2.248445
  O      -0.480782     -4.398685     -2.010894
28
Coordinates from ORCA-job Mn_byp_Br_CO3_zero_singlet_triplet_triplet_min E -4560.368944310360
  C      -3.211319      0.289053     -0.082275
  C      -1.158649      1.335020     -0.608704
  C      -1.609994      2.562740     -0.207714
  C      -2.937390      2.663396      0.284897
  C      -3.715698      1.542734      0.339369
  C      -3.934382     -0.923817     -0.070718
  C      -3.873623     -3.217742     -0.586782
  C      -5.168480     -3.410881     -0.170470
  C      -5.881301     -2.297393      0.329842
  C      -5.270192     -1.075703      0.376032
  H      -0.155763      1.227253     -0.996686
  H      -0.964214      3.425088     -0.278832
  H      -3.329546      3.618124      0.608713
  H      -4.730486      1.604971      0.704766
  H      -3.299617     -4.041814     -0.988447
  H      -5.619565     -4.389484     -0.238780
  H      -6.902485     -2.409499      0.669444
  H      -5.803829     -0.214979      0.751983
  N      -3.251961     -2.029147     -0.545694
  N      -1.904209      0.210401     -0.560735
  Mn     -1.351830     -1.626553     -1.152958
  C       0.300216     -1.080767     -1.816641
  C      -0.828057     -3.372935     -1.673027
  C      -0.887955     -1.922592      0.668072
  Br     -2.197604     -1.499560     -3.450499
  O      -0.664470     -2.048549      1.769358
  O       1.303733     -0.764447     -2.246309
  O      -0.478893     -4.398444     -2.008324
28
Coordinates from ORCA-job Mn_byp_Br_CO3_zero_singlet_triplet_triplet_min E -4560.368953825808
  C      -3.211005      0.289347     -0.081154
  C      -1.159716      1.336669     -0.612088
  C      -1.610754      2.564486     -0.209474
  C      -2.936779      2.663747      0.285706
  C      -3.714474      1.542419      0.341339
  C      -3.933892     -0.923780     -0.069451
  C      -3.874429     -3.216693     -0.590625
  C      -5.169283     -3.410357     -0.173149
  C      -5.880301     -2.298050      0.331231
  C      -5.268229     -1.076662      0.379366
  H      -0.158010      1.228331     -1.002933
  H      -0.965136      3.426779     -0.282077
  H      -3.329249      3.617998      0.610539
  H      -4.728837      1.603119      0.708248
  H      -3.300589     -4.039591     -0.994869
  H      -5.620203     -4.388838     -0.243810
  H      -6.900865     -2.410100      0.672638
  H      -5.799902     -0.216049      0.758424
  N      -3.252560     -2.028792     -0.547150
  N      -1.904522      0.212366     -0.562789
  Mn     -1.351575     -1.625273     -1.152608
  C       0.301523     -1.081131     -1.816058
  C      -0.827075     -3.373647     -1.669947
  C      -0.891470     -1.922248      0.669021
  Br     -2.194447     -1.503915     -3.452365
  O      -0.674547     -2.050886      1.771289
  O       1.305176     -0.765376     -2.245703
  O      -0.476416     -4.399396     -2.002668
28
Coordinates from ORCA-job Mn_byp_Br_CO3_zero_singlet_triplet_triplet_min E -4560.368962189360
  C      -3.210356      0.289454     -0.080034
  C      -1.160852      1.338508     -0.616416
  C      -1.612019      2.566011     -0.212025
  C      -2.936406      2.663715      0.286592
  C      -3.713376      1.541752      0.344038
  C      -3.932958     -0.923922     -0.068064
  C      -3.875448     -3.215474     -0.595685
  C      -5.170134     -3.409134     -0.176796
  C      -5.878934     -2.298301      0.332841
  C      -5.265869     -1.077327      0.383681
  H      -0.160271      1.230624     -1.010155
  H      -0.966858      3.428523     -0.286349
  H      -3.329281      3.617376      0.612772
  H      -4.726924      1.601207      0.713385
  H      -3.302690     -4.037606     -1.002883
  H      -5.621375     -4.387293     -0.250298
  H      -6.898767     -2.410288      0.676503
  H      -5.795499     -0.217339      0.766983
  N      -3.253249     -2.028151     -0.549079
  N      -1.905151      0.214371     -0.565290
  Mn     -1.351217     -1.623862     -1.152448
  C       0.303017     -1.081359     -1.815506
  C      -0.825494     -3.374877     -1.665545
  C      -0.895307     -1.921664      0.669997
  Br     -2.190299     -1.508840     -3.455116
  O      -0.685892     -2.054420      1.773263
  O       1.306832     -0.766028     -2.245229
  O      -0.472789     -4.401179     -1.994254
28
Coordinates from ORCA-job Mn_byp_Br_CO3_zero_singlet_triplet_triplet_min E -4560.368967734576
  C      -3.209543      0.289459     -0.079390
  C      -1.162012      1.340300     -0.620990
  C      -1.613439      2.567133     -0.214850
  C      -2.936306      2.663503      0.287573
  C      -3.712535      1.541087      0.346947
  C      -3.931804     -0.924098     -0.067066
  C      -3.876565     -3.214190     -0.601053
  C      -5.170764     -3.407613     -0.180515
  C      -5.877442     -2.298203      0.334654
  C      -5.263632     -1.077679      0.388170
  H      -0.162342      1.233789     -1.017285
  H      -0.968974      3.430099     -0.290702
  H      -3.329403      3.616587      0.615319
  H      -4.725008      1.599960      0.719242
  H      -3.305583     -4.035987     -1.011292
  H      -5.622763     -4.385290     -0.256621
  H      -6.896474     -2.410335      0.680768
  H      -5.791673     -0.218813      0.776064
  N      -3.253793     -2.027267     -0.551490
  N      -1.905930      0.215932     -0.568077
  Mn     -1.350731     -1.622576     -1.152718
  C       0.304580     -1.081315     -1.815038
  C      -0.823527     -3.376437     -1.660527
  C      -0.899122     -1.921065      0.670654
  Br     -2.185529     -1.513764     -3.458530
  O      -0.697201     -2.059094      1.774723
  O       1.308576     -0.766139     -2.244700
  O      -0.468625     -4.403507     -1.984390
28
Coordinates from ORCA-job Mn_byp_Br_CO3_zero_singlet_triplet_triplet_min E -4560.368972355862
  C      -3.209042      0.289454     -0.079433
  C      -1.162851      1.341321     -0.623787
  C      -1.614377      2.567552     -0.216668
  C      -2.936480      2.663350      0.288359
  C      -3.712226      1.540797      0.348872
  C      -3.931105     -0.924133     -0.066954
  C      -3.877356     -3.213343     -0.604380
  C      -5.170973     -3.406643     -0.182692
  C      -5.876592     -2.297930      0.335808
  C      -5.262585     -1.077681      0.390693
  H      -0.163603      1.236200     -1.021474
  H      -0.970583      3.431001     -0.293324
  H      -3.329440      3.616134      0.617211
  H      -4.723876      1.599875      0.723279
  H      -3.307800     -4.035178     -1.016498
  H      -5.623746     -4.383912     -0.259970
  H      -6.895077     -2.410428      0.683497
  H      -5.790158     -0.219854      0.781410
  N      -3.254000     -2.026540     -0.553379
  N      -1.906496      0.216437     -0.569893
  Mn     -1.350352     -1.621972     -1.153337
  C       0.305580     -1.081220     -1.814913
  C      -0.822147     -3.377708     -1.656826
  C      -0.900948     -1.920622      0.670707
  Br     -2.182210     -1.515818     -3.461185
  O      -0.702824     -2.063138      1.774912
  O       1.309686     -0.765968     -2.244381
  O      -0.465982     -4.405556     -1.976771
28
Coordinates from ORCA-job Mn_byp_Br_CO3_zero_singlet_triplet_triplet_min E -4560.368971168764
  C      -3.208762      0.289691     -0.079930
  C      -1.163719      1.342132     -0.626354
  C      -1.614859      2.567889     -0.218200
  C      -2.936398      2.663436      0.289205
  C      -3.711830      1.540844      0.350326
  C      -3.930721     -0.923953     -0.067232
  C      -3.877924     -3.212479     -0.606899
  C      -5.170833     -3.406113     -0.183905
  C      -5.875800     -2.297870      0.337194
  C      -5.261836     -1.077762      0.392636
  H      -0.164853      1.237987     -1.025266
  H      -0.971637      3.431742     -0.295230
  H      -3.328736      3.616028      0.619336
  H      -4.722745      1.600233      0.726605
  H      -3.309355     -4.034118     -1.020807
  H      -5.624323     -4.383009     -0.261716
  H      -6.893737     -2.411031      0.686284
  H      -5.789304     -0.220839      0.785417
  N      -3.254073     -2.025716     -0.555355
  N      -1.906978      0.216629     -0.571784
  Mn     -1.349786     -1.621543     -1.154110
  C       0.306369     -1.080654     -1.814567
  C      -0.820791     -3.378415     -1.653953
  C      -0.903512     -1.920585      0.670548
  Br     -2.178939     -1.518728     -3.463781
  O      -0.709414     -2.067478      1.774886
  O       1.310602     -0.765048     -2.243474
  O      -0.463668     -4.406792     -1.970995
28
Coordinates from ORCA-job Mn_byp_Br_CO3_zero_singlet_triplet_triplet_min E -4560.368972122526
  C      -3.208873      0.289932     -0.080306
  C      -1.164131      1.342274     -0.627070
  C      -1.614870      2.567956     -0.218594
  C      -2.936279      2.663579      0.289683
  C      -3.711659      1.541010      0.350798
  C      -3.930883     -0.923705     -0.067661
  C      -3.878061     -3.212107     -0.607483
  C      -5.170649     -3.406151     -0.184020
  C      -5.875679     -2.297923      0.337516
  C      -5.261878     -1.077783      0.392743
  H      -0.165429      1.238234     -1.026458
  H      -0.971931      3.431993     -0.295691
  H      -3.328063      3.616195      0.620341
  H      -4.722331      1.600561      0.727707
  H      -3.309529     -4.033532     -1.021927
  H      -5.624404     -4.382918     -0.261596
  H      -6.893431     -2.411569      0.686947
  H      -5.789579     -0.221113      0.785773
  N      -3.254078     -2.025305     -0.556183
  N      -1.907179      0.216485     -0.572381
  Mn     -1.349538     -1.621504     -1.154563
  C       0.306373     -1.080216     -1.814601
  C      -0.820418     -3.378561     -1.652575
  C      -0.903997     -1.920583      0.670292
  Br     -2.177944     -1.519233     -3.464720
  O      -0.710380     -2.069884      1.774368
  O       1.310600     -0.764301     -2.243218
  O      -0.463344     -4.407355     -1.968239
28
Coordinates from ORCA-job Mn_byp_Br_CO3_zero_singlet_triplet_triplet_min E -4560.368973404245
  C      -3.209168      0.290299     -0.080637
  C      -1.164538      1.342315     -0.627642
  C      -1.614778      2.568055     -0.218844
  C      -2.936004      2.663779      0.290190
  C      -3.711406      1.541217      0.351189
  C      -3.931288     -0.923324     -0.068161
  C      -3.877986     -3.211757     -0.607710
  C      -5.170356     -3.406346     -0.183902
  C      -5.875636     -2.298105      0.337570
  C      -5.262060     -1.077838      0.392358
  H      -0.166053      1.238002     -1.027532
  H      -0.972054      3.432212     -0.296013
  H      -3.327106      3.616461      0.621388
  H      -4.721907      1.600676      0.728614
  H      -3.309090     -4.032803     -1.022450
  H      -5.624191     -4.383076     -0.261050
  H      -6.893270     -2.412288      0.687105
  H      -5.790002     -0.221186      0.785152
  N      -3.254121     -2.024855     -0.556875
  N      -1.907407      0.216388     -0.572857
  Mn     -1.349336     -1.621463     -1.154963
  C       0.306101     -1.079650     -1.814694
  C      -0.820354     -3.378394     -1.651144
  C      -0.904249     -1.920640      0.669991
  Br     -2.177366     -1.519447     -3.465315
  O      -0.710476     -2.072643      1.773645
  O       1.310309     -0.763372     -2.243010
  O      -0.463772     -4.407741     -1.965522
28
Coordinates from ORCA-job Mn_byp_Br_CO3_zero_singlet_triplet_triplet_min E -4560.368973983546
  C      -3.209366      0.290555     -0.080697
  C      -1.164753      1.342405     -0.628100
  C      -1.614775      2.568206     -0.219046
  C      -2.935761      2.663899      0.290458
  C      -3.711184      1.541302      0.351484
  C      -3.931534     -0.923070     -0.068343
  C      -3.877783     -3.211554     -0.607851
  C      -5.170115     -3.406428     -0.183881
  C      -5.875534     -2.298283      0.337488
  C      -5.262083     -1.077905      0.392106
  H      -0.166447      1.237829     -1.028359
  H      -0.972094      3.432371     -0.296360
  H      -3.326533      3.616590      0.621997
  H      -4.721583      1.600444      0.729269
  H      -3.308565     -4.032330     -1.022675
  H      -5.623825     -4.383220     -0.260869
  H      -6.893133     -2.412710      0.687017
  H      -5.790020     -0.221137      0.784697
  N      -3.254174     -2.024562     -0.557199
  N      -1.907580      0.216533     -0.573192
  Mn     -1.349252     -1.621314     -1.155093
  C       0.305890     -1.079281     -1.814708
  C      -0.820524     -3.378073     -1.650210
  C      -0.904517     -1.920775      0.669839
  Br     -2.177151     -1.519765     -3.465423
  O      -0.710802     -2.074586      1.773250
  O       1.310117     -0.762824     -2.242849
  O      -0.464482     -4.407841     -1.963869
