28
Coordinates from ORCA-job Mn_byp_Br_CO3_zero_singlet_triplet_triplet_min
  C   -3.20936620747340      0.29055503301055     -0.08069680054864
  C   -1.16475327837918      1.34240456416902     -0.62809955224058
  C   -1.61477498327499      2.56820595209171     -0.21904634527575
  C   -2.93576080151116      2.66389876772380      0.29045819537501
  C   -3.71118384504438      1.54130182740534      0.35148443449417
  C   -3.93153384620126     -0.92306960967105     -0.06834292576924
  C   -3.87778274200484     -3.21155399180208     -0.60785069751432
  C   -5.17011465169600     -3.40642782595856     -0.18388133532448
  C   -5.87553427222905     -2.29828342846783      0.33748800609280
  C   -5.26208279680021     -1.07790500047053      0.39210613101836
  H   -0.16644743977078      1.23782912899977     -1.02835906351901
  H   -0.97209414875197      3.43237104607200     -0.29635977187203
  H   -3.32653301028832      3.61658974065542      0.62199683102262
  H   -4.72158337413178      1.60044432311884      0.72926861585942
  H   -3.30856487237580     -4.03232953581962     -1.02267512678331
  H   -5.62382476461041     -4.38321954493195     -0.26086863262606
  H   -6.89313343598188     -2.41270981422136      0.68701722532842
  H   -5.79001998469139     -0.22113712855426      0.78469686230679
  N   -3.25417379676262     -2.02456187999024     -0.55719944386999
  N   -1.90757982053362      0.21653315602233     -0.57319164553160
  Mn  -1.34925248848597     -1.62131410362495     -1.15509302875891
  C   0.30589007102326     -1.07928126224841     -1.81470800837382
  C   -0.82052419811316     -3.37807349903028     -1.65021037296609
  C   -0.90451742841351     -1.92077468947254      0.66983909845160
  Br  -2.17715117115140     -1.51976496034667     -3.46542315452316
  O   -0.71080234169428     -2.07458567112229      1.77325026372165
  O   1.31011689906817     -0.76282357238681     -2.24284917721391
  O   -0.46448164972002     -4.40784097114932     -1.96386861095991
