28
lambda = 0.66666667
Fe    -2.231656032668     0.931310666253     0.539739058639
Ni     0.432843103215    -0.137060123159    -0.019985187091
S     -1.495275286971    -1.177523473159     0.577095300573
S     -1.009048281815     0.924818236715    -1.376024176601
C     -1.427749567637    -1.850624354055     2.246220551883
H     -0.708637350621    -2.666154136487     2.254258926447
C     -0.399611436950     2.589594114198    -1.821644266348
H     -0.070485837401     2.604236107551    -2.757366699597
H      0.344840762909     2.849532120581    -1.240581050513
H     -1.104232305132     3.271503868944    -1.729672374476
C     -3.765494346627     0.693247290135    -0.008194053726
O     -4.833796849578     0.516981631075    -0.399577158731
C     -2.792453909274     0.848143952313     2.322916750409
N     -3.129917204918     0.769207397195     3.435385844216
C     -2.402848473083     2.784486713776     0.502421300773
N     -2.513614239213     3.935910723168     0.443351255718
S      1.759767808895    -1.745029786598    -0.259295394171
S      2.003369333340     1.143407512935     0.297755492616
C      1.423372446571    -2.708768167023    -1.391529391641
H      1.384227406349    -2.099121119450    -2.137949951613
H      0.639462005074    -3.094910963141    -1.277392378249
H      2.039820009431    -3.549563756003    -1.459902036070
C      3.344292973291     1.323273805513    -0.104059743196
H      3.881368217347     1.820092087597     0.499653493811
H      3.452325534409     1.905071044403    -0.781327810957
H      3.534965577940     0.362134938834    -0.290928644526
H     -1.127829974079    -1.105171749645     2.957838611004
H     -2.418756941469    -2.196977998467     2.495483338084
