28
Best interpolated MECP guess: index=8, lambda=0.77777778
Fe    -2.223828704779     0.895627443961     0.522578901746
Ni     0.496011953750    -0.125138477018     0.060167281727
S     -1.426114501466    -1.200812385352     0.647101184002
S     -0.945087995450     0.873759609500    -1.364293206035
C     -1.358557828909    -1.805210079730     2.349623977197
H     -0.660153575724    -2.641519825901     2.383160414188
C     -0.346138343108     2.543226466564    -1.807989977406
H      0.088666523032     2.524323792142    -2.727207816196
H      0.339290890060     2.857249140678    -1.140991225598
H     -1.104494355987     3.211769513768    -1.815856103555
C     -3.736363404398     0.592881838490    -0.076093062680
O     -4.789636324508     0.372391902920    -0.500831685186
C     -2.841924560820     0.848491277698     2.293811208810
N     -3.214705072404     0.792520296728     3.399620151585
C     -2.456224885264     2.748089499405     0.427654850901
N     -2.604974945749     3.897539177029     0.332881465004
S      1.850687443711    -1.717744751031    -0.364684626533
S      2.029765888897     1.203242098425     0.578356408052
C      1.284142854332    -2.730529528193    -1.461554290247
H      1.134276974073    -2.150362972692    -2.257728276881
H      0.471655672586    -3.106637790331    -1.195226107958
H      1.896503344337    -3.580021048671    -1.612902375415
C      3.369316802173     1.413737773099    -0.096206367062
H      4.028319586904     1.871087435529     0.475375742779
H      3.338944790144     2.047071218471    -0.801167446116
H      3.575433174263     0.458045761973    -0.391115085280
H     -1.028998303092    -1.034092041253     3.027375046171
H     -2.356564765048    -2.116937664878     2.632827227765
