28
lambda = 0.55555556
Fe    -2.239483360557     0.966993888544     0.556899215533
Ni     0.369674252679    -0.148981769299    -0.100137655909
S     -1.564436072476    -1.154234560966     0.507089417144
S     -1.073008568179     0.975876863929    -1.387755147168
C     -1.496941306364    -1.896038628379     2.142817126569
H     -0.757121125517    -2.690788447072     2.125357438706
C     -0.453084530792     2.635961761832    -1.835298555290
H     -0.229638197834     2.684148422959    -2.787525582997
H      0.350390635757     2.841815100484    -1.340170875427
H     -1.103970254277     3.331238224120    -1.643488645397
C     -3.794625288856     0.793612741779     0.059704955228
O     -4.877957374648     0.661571359229    -0.298322632276
C     -2.742983257728     0.847796626927     2.352022292007
N     -3.045129337432     0.745894497663     3.471151536847
C     -2.349472060903     2.820883928147     0.577187750644
N     -2.422253532678     3.974282269307     0.553821046432
S      1.668848174079    -1.772314822165    -0.153906161809
S      1.976972777783     1.083572927446     0.017154577180
C      1.562602038809    -2.687006805852    -1.321504493034
H      1.634177838624    -2.047879266208    -2.018171626344
H      0.807268337562    -3.083184135951    -1.359558648541
H      2.183136674526    -3.519106463336    -1.306901696725
C      3.319269144409     1.232809837928    -0.111913119330
H      3.734416847789     1.769096739664     0.523931244842
H      3.565706278674     1.763070870336    -0.761488175797
H      3.494497981617     0.266224115695    -0.190742203772
H     -1.226661645066    -1.176251458038     2.888302175837
H     -2.480949117891    -2.277018332056     2.358139448403
