28
lambda = 0.44444444
Fe    -2.247310688445     1.002677110835     0.574059372426
Ni     0.306505402143    -0.160903415439    -0.180290124728
S     -1.633596857980    -1.130945648772     0.437083533716
S     -1.136968854543     1.026935491143    -1.399486117734
C     -1.566133045091    -1.941452902703     2.039413701256
H     -0.805604900414    -2.715422757658     1.996455950964
C     -0.506557624633     2.682329409465    -1.848952844232
H     -0.388790558268     2.764060738367    -2.817684466398
H      0.355940508606     2.834098080388    -1.439760700342
H     -1.103708203421     3.390972579296    -1.557304916317
C     -3.823756231084     0.893978193423     0.127603964183
O     -4.922117899719     0.806161087383    -0.197068105820
C     -2.693512606183     0.847449301542     2.381127833606
N     -2.960341469945     0.722581598130     3.506917229477
C     -2.296095648722     2.857281142517     0.651954200515
N     -2.330892826142     4.012653815445     0.664290837145
S      1.577928539264    -1.799599857732    -0.048516929448
S      1.950576222227     1.023738341957    -0.263446338256
C      1.701831631047    -2.665245444682    -1.251479594427
H      1.884128270899    -1.996637412967    -1.898393301075
H      0.975074670049    -3.071457308760    -1.441724918833
H      2.326453339621    -3.488649170669    -1.153901357380
C      3.294245315528     1.142345870342    -0.119766495464
H      3.587465478231     1.718101391731     0.548208995874
H      3.679087022940     1.621070696269    -0.741648540638
H      3.454030385293     0.170313292556    -0.090555763017
H     -1.325493316052    -1.247331166430     2.818765740669
H     -2.543141294313    -2.357058665644     2.220795558723
