28
lambda = 0.88888889
Fe    -2.216001376891     0.859944221670     0.505418744852
Ni     0.559180804286    -0.113216830878     0.140319750545
S     -1.356953715961    -1.224101297545     0.717107067431
S     -0.881127709086     0.822700982286    -1.352562235468
C     -1.289366090182    -1.759795805406     2.453027402511
H     -0.611669800828    -2.616885515316     2.512061901929
C     -0.292665249267     2.496858818931    -1.794335688464
H      0.247818883465     2.444411476734    -2.697048932796
H      0.333741017212     2.864966160775    -1.041401400684
H     -1.104756406843     3.152035158592    -1.902039832635
C     -3.707232462169     0.492516386846    -0.143992071635
O     -4.745475799437     0.227802174766    -0.602086211641
C     -2.891395212365     0.848838603084     2.264705667212
N     -3.299492939891     0.815833196260     3.363854458955
C     -2.509601297444     2.711692285035     0.352888401030
N     -2.696335652284     3.859167630891     0.222411674291
S      1.941607078527    -1.690459715464    -0.470073858895
S      2.056162444453     1.263076683914     0.858957323488
C      1.144913262094    -2.752290889364    -1.531579188854
H      0.884326541798    -2.201604825933    -2.377506602150
H      0.303849340099    -3.118364617521    -1.113059837666
H      1.753186679242    -3.610478341338    -1.765902714760
C      3.394340631055     1.504201740684    -0.088352990928
H      4.175270956462     1.922082783462     0.451097991748
H      3.225564045879     2.189071392538    -0.821007081276
H      3.615900770587     0.553956585112    -0.491301526035
H     -0.930166632105    -0.963012332860     3.096911481339
H     -2.294372588626    -2.036897331289     2.770171117445
