28
lambda = 0.22222222
Fe    -2.262965344223     1.074043555418     0.608379686213
Ni     0.180167701072    -0.184746707720    -0.340595062364
S     -1.771918428990    -1.084367824386     0.297071766858
S     -1.264889427272     1.129052745572    -1.422948058867
C     -1.704516522546    -2.032281451352     1.832606850628
H     -0.902572450207    -2.764691378829     1.738652975482
C     -0.613503812317     2.775064704733    -1.876261422116
H     -0.707095279134     2.923885369184    -2.878002233199
H      0.367040254303     2.818664040194    -1.638940350171
H     -1.103184101711     3.510441289648    -1.384937458159
C     -3.882018115542     1.094709096712     0.263401982091
O     -5.010438949859     1.095340543692     0.005440947090
C     -2.594571303091     0.846754650771     2.439338916803
N     -2.790765734973     0.675955799065     3.578448614739
C     -2.189342824361     2.930075571259     0.801487100258
N     -2.148171413071     4.089396907723     0.885230418573
S      1.396089269632    -1.854169928866     0.162261535276
S      1.897783111113     0.904069170978    -0.824648169128
C      1.980290815524    -2.621722722341    -1.111429797214
H      2.384029135450    -1.894153706483    -1.658836650538
H      1.310687335025    -3.048003654380    -1.606057459416
H      2.613086669810    -3.427734585334    -0.847900678690
C      3.244197657764     0.961417935171    -0.135473247732
H      3.293562739116     1.616110695866     0.596764497937
H      3.905848511470     1.337070348134    -0.701969270319
H      3.373095192647    -0.021508353722     0.109817118491
H     -1.523156658026    -1.389490583215     2.679692870335
H     -2.667525647156    -2.517139332822     1.946107779361
