28
lambda = 0.33333333
Fe    -2.255138016334     1.038360333126     0.591219529320
Ni     0.243336551607    -0.172825061579    -0.260442593546
S     -1.702757643485    -1.107656736579     0.367077650287
S     -1.200929140907     1.077994118357    -1.411217088301
C     -1.635324783818    -1.986867177027     1.936010275942
H     -0.854088675310    -2.740057068243     1.867554463223
C     -0.560030718475     2.728697057099    -1.862607133174
H     -0.547942918701     2.843973053775    -2.847843349798
H      0.361490381454     2.826381060291    -1.539350525256
H     -1.103446152566     3.450706934472    -1.471121187238
C     -3.852887173313     0.994343645067     0.195502973137
O     -4.966278424789     0.950750815537    -0.095813579365
C     -2.644041954637     0.847101976156     2.410233375204
N     -2.875553602459     0.699268698598     3.542682922108
C     -2.242719236542     2.893678356888     0.726720650386
N     -2.239532119607     4.051025361584     0.774760627859
S      1.487008904448    -1.826884893299     0.056872302914
S      1.924179666670     0.963903756468    -0.544047253692
C      1.841061223285    -2.643484083511    -1.181454695820
H      2.134078703174    -1.945395559725    -1.778614975806
H      1.142881002537    -3.059730481570    -1.523891189125
H      2.469770004716    -3.458191878002    -1.000901018035
C      3.269221486646     1.051881902757    -0.127619871598
H      3.440514108673     1.667106043798     0.572486746905
H      3.792467767205     1.479070522202    -0.721808905478
H      3.413562788970     0.074402469417     0.009630677737
H     -1.424324987039    -1.318410874823     2.749229305502
H     -2.605333470735    -2.437098999233     2.083451669042
