28
lambda = 0.11111111
Fe    -2.270792672111     1.109726777709     0.625539843107
Ni     0.116998850536    -0.196668353860    -0.420747531182
S     -1.841079214495    -1.061078912193     0.227065883429
S     -1.328849713636     1.180111372786    -1.434679029434
C     -1.773708261273    -2.077695725676     1.729203425314
H     -0.951056225103    -2.789325689414     1.609751487741
C     -0.666976906158     2.821432352366    -1.889915711058
H     -0.866247639567     3.003797684592    -2.908161116599
H      0.372590127151     2.810947020097    -1.738530175085
H     -1.102922050855     3.570175644824    -1.298753729079
C     -3.911149057771     1.195074548356     0.331300991046
O     -5.054599474930     1.239930271846     0.106695473545
C     -2.545100651546     0.846407325385     2.468444458401
N     -2.705977867486     0.652642899533     3.614214307369
C     -2.135966412181     2.966472785629     0.876253550129
N     -2.056810706536     4.127768453861     0.995700209286
S      1.305169634816    -1.881454964433     0.267650767638
S      1.871386555557     0.844234585489    -1.105249084564
C      2.119520407762    -2.599961361170    -1.041404898607
H      2.633979567725    -1.842911853242    -1.539058325269
H      1.478493667512    -3.036276827190    -1.688223729708
H      2.756403334905    -3.397277292667    -0.694900339345
C      3.219173828882     0.870953967586    -0.143326623866
H      3.146611369558     1.565115347933     0.621042248968
H      4.019229255735     1.195070174067    -0.682129635159
H      3.332627596323    -0.117419176861     0.210003559246
H     -1.621988329013    -1.460570291608     2.610156435167
H     -2.729717823578    -2.597179666411     1.808763889681
