28
lambda = 1.00000000
Fe    -2.208174049002     0.824260999379     0.488258587959
Ni     0.622349654822    -0.101295184738     0.220472219363
S     -1.287792930456    -1.247390209738     0.787112950860
S     -0.817167422722     0.771642355072    -1.340831264902
C     -1.220174351455    -1.714381531082     2.556430827825
H     -0.563186025931    -2.592251204730     2.640963389670
C     -0.239192155425     2.450491171297    -1.780681399522
H      0.406971243898     2.364499161326    -2.666890049395
H      0.328191144363     2.872683180872    -0.941811575769
H     -1.105018457698     3.092300803416    -1.988223561714
C     -3.678101519940     0.392150935202    -0.211891080589
O     -4.701315274367     0.083212446612    -0.703340738096
C     -2.940865863911     0.849185928469     2.235600125613
N     -3.384280807377     0.839146095793     3.328088766324
C     -2.562977709625     2.675295070664     0.278121951159
N     -2.787696358820     3.820796084752     0.111941883577
S      2.032526713343    -1.663174679897    -0.575463091257
S      2.082559000010     1.322911269403     1.139558238924
C      1.005683669856    -2.774052250534    -1.601604087461
H      0.634376109523    -2.252846679175    -2.497284927419
H      0.136043007611    -3.130091444711    -1.030893567374
H      1.609870014147    -3.640935634005    -1.918903054105
C      3.419364459937     1.594665708270    -0.080499614794
H      4.322222326020     1.973078131395     0.426820240716
H      3.112183301614     2.331071566605    -0.840846716435
H      3.656368366910     0.649867408251    -0.591487966789
H     -0.831334961118    -0.891932624468     3.166447916506
H     -2.232180412204    -1.956856997700     2.907515007126
