21
Coordinates from ORCA-job Rubredoxin_minus2_triplet_quintet
  Fe  0.53252197463309      0.06171542513804     -0.19657287900333
  S   0.97785163123573     -2.10281198310317      0.42592506848538
  S   1.82193884606873      0.83311601625977      1.55973229866312
  S   -1.64522119863572     -0.24303042884991     -0.71858999103021
  S   0.99471537511248      1.59724784340992     -1.79585619924175
  C   -2.28861037548141      0.95054977726945     -1.96662339641482
  H   -1.52298671296083      1.15412567415986     -2.73174261538150
  H   -3.18770304433543      0.53569173587001     -2.45982549476408
  H   -2.56071405805335      1.91423080735146     -1.50295397101049
  C   0.35460399369303     -3.19236014791009     -0.91956899188509
  H   0.33153234044192     -4.24609906887750     -0.58101560179985
  H   -0.66076199414938     -2.87719698816689     -1.20592341450833
  H   0.99457336314032     -3.13126808270646     -1.81750269808046
  C   1.31367807393650      2.58839697062390      1.75680190573584
  H   0.24423221958707      2.66202163732629      2.01645277729998
  H   1.90432226878519      3.06908278707299      2.56078995504988
  H   1.46309968175880      3.14507397487735      0.81755521054588
  C   2.78093402499645      2.04009299383492     -1.67265881571081
  H   3.39549317089442      1.38585211810574     -2.31524200784760
  H   2.94877691157317      3.08679221427936     -1.98785413735854
  H   3.11008854776122      1.90639196402796     -0.62947691174422
