21
Coordinates from ORCA-job Rubredoxin_minus2_triplet_quintet E -3015.141110305206
  Fe      0.568855      0.032835     -0.237229
  S       1.150165     -2.090358      0.241990
  S       1.732998      0.890397      1.526910
  S      -1.532515     -0.421329     -0.908563
  S       1.030223      1.604219     -1.769852
  C      -2.210498      0.933610     -1.934490
  H      -1.490573      1.275573     -2.642706
  H      -3.086538      0.611530     -2.482832
  H      -2.490097      1.768803     -1.335663
  C       0.298195     -3.160524     -0.920446
  H       0.451642     -4.175419     -0.624131
  H      -0.779800     -2.945828     -0.961073
  H       0.682900     -3.036002     -1.902191
  C       1.267386      2.606265      1.648975
  H       0.270413      2.676605      2.066061
  H       1.970004      3.155430      2.274684
  H       1.261419      3.066612      0.690609
  C       2.778440      2.024950     -1.557122
  H       3.296048      1.442030     -2.073179
  H       2.986973      2.915071     -1.835782
  H       3.146724      1.963148     -0.628120
21
Coordinates from ORCA-job Rubredoxin_minus2_triplet_quintet E -3015.189990450315
  Fe      0.559352      0.032403     -0.236660
  S       1.139320     -2.096825      0.247533
  S       1.718134      0.879334      1.541854
  S      -1.549779     -0.404552     -0.906986
  S       1.033385      1.602674     -1.774858
  C      -2.228109      0.956404     -1.931804
  H      -1.494257      1.299413     -2.654451
  H      -3.117821      0.628926     -2.481475
  H      -2.507581      1.808601     -1.319717
  C       0.306698     -3.203545     -0.918290
  H       0.469067     -4.233972     -0.604295
  H      -0.773761     -3.001215     -0.970211
  H       0.704512     -3.083978     -1.920313
  C       1.256892      2.615339      1.669983
  H       0.247937      2.700932      2.085207
  H       1.963312      3.161401      2.311595
  H       1.259766      3.088890      0.693854
  C       2.791587      2.032274     -1.576345
  H       3.362871      1.384326     -2.144587
  H       3.001106      3.005225     -1.888854
  H       3.159736      1.965561     -0.585331
21
Coordinates from ORCA-job Rubredoxin_minus2_triplet_quintet E -3015.200365488198
  Fe      0.533160      0.035292     -0.226397
  S       1.084780     -2.101542      0.292383
  S       1.703250      0.866795      1.559096
  S      -1.589384     -0.368404     -0.885549
  S       1.033353      1.586799     -1.784372
  C      -2.260663      0.992330     -1.923252
  H      -1.516492      1.317753     -2.664532
  H      -3.167528      0.660344     -2.462534
  H      -2.526777      1.868565     -1.312024
  C       0.343850     -3.242187     -0.928705
  H       0.498867     -4.284874     -0.598359
  H      -0.734299     -3.055005     -1.047379
  H       0.805091     -3.120147     -1.921899
  C       1.256164      2.629003      1.686588
  H       0.234816      2.742931      2.088718
  H       1.960772      3.163884      2.351956
  H       1.280828      3.110471      0.697671
  C       2.803835      2.018626     -1.599616
  H       3.406588      1.329825     -2.168903
  H       3.010109      3.023753     -1.953867
  H       3.142043      1.963404     -0.563173
21
Coordinates from ORCA-job Rubredoxin_minus2_triplet_quintet E -3015.201282029946
  Fe      0.519499      0.053568     -0.209676
  S       1.020658     -2.092165      0.345756
  S       1.768266      0.859405      1.538955
  S      -1.633629     -0.296755     -0.797898
  S       1.015678      1.572690     -1.805474
  C      -2.264006      0.989127     -1.954024
  H      -1.518316      1.202159     -2.738105
  H      -3.199381      0.646741     -2.439281
  H      -2.474221      1.936887     -1.427322
  C       0.355318     -3.234362     -0.929557
  H       0.478643     -4.282949     -0.593406
  H      -0.711928     -3.036747     -1.113983
  H       0.880897     -3.114371     -1.895715
  C       1.273282      2.613612      1.743205
  H       0.255208      2.695220      2.166427
  H       1.974680      3.136843      2.422816
  H       1.268272      3.132146      0.769370
  C       2.790381      2.021628     -1.638507
  H       3.418639      1.307359     -2.191647
  H       2.983393      3.034871     -2.036031
  H       3.101033      1.992708     -0.580054
21
Coordinates from ORCA-job Rubredoxin_minus2_triplet_quintet E -3015.201350890185
  Fe      0.460651      0.076429     -0.146515
  S       0.945866     -2.076691      0.409371
  S       1.708246      0.850617      1.620996
  S      -1.693153     -0.259933     -0.740777
  S       0.963304      1.611407     -1.728289
  C      -2.303653      0.983646     -1.954498
  H      -1.548872      1.157877     -2.738891
  H      -3.237636      0.627110     -2.431063
  H      -2.509308      1.954123     -1.469916
  C       0.427372     -3.186959     -0.963208
  H       0.507433     -4.244505     -0.643506
  H      -0.612545     -2.974650     -1.257078
  H       1.058110     -3.046348     -1.861025
  C       1.293259      2.636479      1.762224
  H       0.250358      2.784122      2.096416
  H       1.962720      3.129104      2.494198
  H       1.399066      3.135249      0.783875
  C       2.773023      1.946473     -1.660692
  H       3.330838      1.222219     -2.288121
  H       2.997849      2.971416     -2.028060
  H       3.129439      1.840429     -0.619590
21
Coordinates from ORCA-job Rubredoxin_minus2_triplet_quintet E -3015.200448067591
  Fe      0.496700      0.063788     -0.174212
  S       0.951439     -2.092303      0.409732
  S       1.805903      0.820086      1.559787
  S      -1.677976     -0.240845     -0.704866
  S       0.978968      1.578984     -1.783723
  C      -2.289007      0.932463     -1.987952
  H      -1.538771      1.050808     -2.785894
  H      -3.229738      0.554528     -2.431698
  H      -2.480795      1.932349     -1.563431
  C       0.353657     -3.192425     -0.940556
  H       0.383353     -4.248537     -0.610766
  H      -0.679783     -2.924741     -1.213036
  H       0.973881     -3.094893     -1.849961
  C       1.354637      2.595891      1.746055
  H       0.303222      2.717273      2.060270
  H       1.999225      3.074197      2.508587
  H       1.473409      3.122229      0.784782
  C       2.754564      2.052555     -1.623362
  H       3.409819      1.357820     -2.195755
  H       2.919840      3.084168     -2.010974
  H       3.039819      1.994222     -0.557176
21
Coordinates from ORCA-job Rubredoxin_minus2_triplet_quintet E -3015.199748307337
  Fe      0.563159      0.098433     -0.211628
  S       1.025673     -2.049109      0.403640
  S       1.880215      0.875738      1.508816
  S      -1.613504     -0.224122     -0.721311
  S       1.022454      1.597164     -1.843750
  C      -2.258746      0.952454     -1.984833
  H      -1.514876      1.100502     -2.782942
  H      -3.191224      0.557499     -2.429708
  H      -2.472988      1.940779     -1.545708
  C       0.341880     -3.155603     -0.897915
  H       0.362006     -4.206336     -0.552584
  H      -0.696476     -2.864579     -1.123669
  H       0.921734     -3.086637     -1.834811
  C       1.237154      2.565111      1.856019
  H       0.194543      2.533756      2.215187
  H       1.856595      3.055068      2.631880
  H       1.250624      3.174021      0.938463
  C       2.819313      2.008938     -1.761340
  H       3.420612      1.312220     -2.381773
  H       2.999440      3.040584     -2.130403
  H       3.154777      1.911733     -0.715781
21
Coordinates from ORCA-job Rubredoxin_minus2_triplet_quintet E -3015.200827539035
  Fe      0.510844      0.067646     -0.187826
  S       0.971004     -2.081138      0.421842
  S       1.784601      0.851751      1.560959
  S      -1.653158     -0.258336     -0.747193
  S       0.999994      1.574605     -1.802181
  C      -2.296010      0.985939     -1.944139
  H      -1.539572      1.201442     -2.714775
  H      -3.210265      0.604121     -2.435983
  H      -2.541251      1.938334     -1.445089
  C       0.396709     -3.181442     -0.933424
  H       0.418739     -4.236429     -0.600317
  H      -0.630042     -2.910719     -1.224297
  H       1.035057     -3.086293     -1.828843
  C       1.271181      2.603531      1.763655
  H       0.218032      2.674521      2.084556
  H       1.903173      3.101089      2.524699
  H       1.362390      3.143978      0.808496
  C       2.794418      1.977696     -1.685221
  H       3.393674      1.288083     -2.300567
  H       2.988218      3.005268     -2.037048
  H       3.124628      1.873968     -0.641455
21
Coordinates from ORCA-job Rubredoxin_minus2_triplet_quintet E -3015.200838381334
  Fe      0.510877      0.067824     -0.166718
  S       0.993046     -2.091111      0.398018
  S       1.791649      0.822343      1.592371
  S      -1.655847     -0.263320     -0.713374
  S       0.970382      1.618603     -1.749563
  C      -2.280444      0.907456     -1.992187
  H      -1.516044      1.068278     -2.769248
  H      -3.194126      0.500625     -2.465537
  H      -2.522796      1.891860     -1.556078
  C       0.336794     -3.172583     -0.937889
  H       0.359888     -4.232184     -0.617039
  H      -0.699364     -2.883784     -1.172884
  H       0.931225     -3.077038     -1.864092
  C       1.351829      2.600684      1.750867
  H       0.292053      2.725420      2.032375
  H       1.978384      3.080852      2.527682
  H       1.501852      3.121106      0.790851
  C       2.759443      2.050266     -1.632541
  H       3.370220      1.389274     -2.274067
  H       2.931174      3.094895     -1.954910
  H       3.092170      1.918148     -0.590186
21
Coordinates from ORCA-job Rubredoxin_minus2_triplet_quintet E -3015.200456866749
  Fe      0.506924      0.072979     -0.173839
  S       0.948379     -2.084600      0.435919
  S       1.821095      0.831016      1.560848
  S      -1.672377     -0.222151     -0.690335
  S       0.980018      1.585705     -1.790179
  C      -2.295049      0.940578     -1.977930
  H      -1.533478      1.087328     -2.759985
  H      -3.214180      0.535598     -2.441518
  H      -2.527302      1.931032     -1.551137
  C       0.370605     -3.168891     -0.934535
  H       0.355681     -4.225886     -0.605924
  H      -0.642624     -2.865599     -1.240955
  H       1.028687     -3.089394     -1.817822
  C       1.326774      2.590798      1.769404
  H       0.267331      2.674962      2.065483
  H       1.946993      3.070258      2.551404
  H       1.448720      3.138816      0.821252
  C       2.768858      2.020605     -1.667007
  H       3.387510      1.347986     -2.291067
  H       2.941836      3.060080     -2.008141
  H       3.087963      1.906397     -0.618085
21
Coordinates from ORCA-job Rubredoxin_minus2_triplet_quintet E -3015.200742118623
  Fe      0.531617      0.061067     -0.200546
  S       0.989404     -2.090613      0.420775
  S       1.810822      0.839102      1.551977
  S      -1.636757     -0.261492     -0.746220
  S       1.007664      1.576656     -1.813383
  C      -2.291741      0.969617     -1.951443
  H      -1.530285      1.200763     -2.712717
  H      -3.191770      0.567169     -2.452942
  H      -2.563552      1.916961     -1.455845
  C       0.368195     -3.186763     -0.920078
  H       0.363741     -4.240594     -0.581680
  H      -0.654420     -2.885681     -1.196200
  H       0.997859     -3.115399     -1.824281
  C       1.287346      2.590235      1.755907
  H       0.223389      2.656286      2.039391
  H       1.890842      3.078990      2.545259
  H       1.411313      3.141561      0.810257
  C       2.794477      2.016054     -1.680504
  H       3.416145      1.346120     -2.301375
  H       2.967433      3.054767     -2.019197
  H       3.110643      1.902807     -0.631304
21
Coordinates from ORCA-job Rubredoxin_minus2_triplet_quintet E -3015.200718098759
  Fe      0.521140      0.068575     -0.183103
  S       0.978051     -2.088622      0.422029
  S       1.813682      0.835315      1.565103
  S      -1.652015     -0.244685     -0.714993
  S       0.988541      1.594298     -1.788768
  C      -2.287936      0.943683     -1.971978
  H      -1.523561      1.129965     -2.742724
  H      -3.194508      0.534586     -2.456165
  H      -2.544929      1.915479     -1.517112
  C       0.360074     -3.175308     -0.927737
  H       0.358667     -4.232054     -0.598070
  H      -0.663130     -2.875311     -1.202056
  H       0.989991     -3.094616     -1.831058
  C       1.313257      2.592857      1.765429
  H       0.251037      2.671800      2.052368
  H       1.925603      3.076846      2.551000
  H       1.440514      3.140746      0.818062
  C       2.778434      2.023641     -1.671101
  H       3.387879      1.358780     -2.307068
  H       2.953297      3.064696     -1.998295
  H       3.108276      1.896945     -0.627912
21
Coordinates from ORCA-job Rubredoxin_minus2_triplet_quintet E -3015.200734469828
  Fe      0.519932      0.064771     -0.184756
  S       0.971167     -2.093651      0.427031
  S       1.813498      0.830940      1.564518
  S      -1.654725     -0.243402     -0.714269
  S       0.988795      1.589992     -1.791119
  C      -2.291998      0.946230     -1.969566
  H      -1.526415      1.137405     -2.737967
  H      -3.195936      0.534948     -2.456849
  H      -2.553835      1.915856     -1.512659
  C       0.361646     -3.180205     -0.927406
  H       0.350527     -4.236482     -0.596177
  H      -0.656898     -2.874403     -1.212656
  H       1.001657     -3.104840     -1.824188
  C       1.319481      2.591724      1.756658
  H       0.254662      2.676319      2.032051
  H       1.925651      3.073896      2.548080
  H       1.459341      3.137723      0.809794
  C       2.776181      2.028860     -1.665183
  H       3.393017      1.366586     -2.298308
  H       2.946963      3.071665     -1.991939
  H       3.099656      1.903684     -0.619240
21
Coordinates from ORCA-job Rubredoxin_minus2_triplet_quintet E -3015.200768147535
  Fe      0.524125      0.064223     -0.188165
  S       0.972712     -2.095941      0.428065
  S       1.817619      0.831539      1.562627
  S      -1.651933     -0.241620     -0.714193
  S       0.990847      1.591777     -1.793408
  C      -2.291372      0.947410     -1.968933
  H      -1.524925      1.143376     -2.735260
  H      -3.192298      0.532983     -2.459111
  H      -2.558977      1.914977     -1.510876
  C       0.359602     -3.182830     -0.924654
  H       0.343308     -4.238485     -0.591608
  H      -0.657308     -2.872779     -1.211145
  H       1.000865     -3.112187     -1.820939
  C       1.317522      2.590142      1.757925
  H       0.251041      2.669887      2.028039
  H       1.918094      3.071651      2.554005
  H       1.460168      3.140553      0.813984
  C       2.778108      2.031700     -1.669042
  H       3.393923      1.372118     -2.305760
  H       2.947906      3.075960     -1.991784
  H       3.103337      1.903161     -0.623918
21
Coordinates from ORCA-job Rubredoxin_minus2_triplet_quintet E -3015.200879763862
  Fe      0.531246      0.061845     -0.195017
  S       0.976668     -2.101959      0.427286
  S       1.821307      0.832631      1.560495
  S      -1.646416     -0.242117     -0.717420
  S       0.994200      1.595925     -1.795627
  C      -2.289632      0.950248     -1.966796
  H      -1.522794      1.155364     -2.730290
  H      -3.186827      0.533509     -2.461838
  H      -2.564773      1.913343     -1.503649
  C       0.355598     -3.190498     -0.920238
  H       0.333030     -4.244764     -0.583242
  H      -0.659690     -2.875461     -1.206940
  H       0.996510     -3.127549     -1.817342
  C       1.314665      2.588602      1.756620
  H       0.245348      2.663031      2.016510
  H       1.905962      3.069438      2.560036
  H       1.464184      3.144411      0.816877
  C       2.780624      2.038331     -1.672307
  H       3.394893      1.383806     -2.314604
  H       2.948859      3.084785     -1.987677
  H       3.109403      1.904694     -0.628986
21
Coordinates from ORCA-job Rubredoxin_minus2_triplet_quintet E -3015.200893859217
  Fe      0.532522      0.061715     -0.196573
  S       0.977852     -2.102812      0.425925
  S       1.821939      0.833116      1.559732
  S      -1.645221     -0.243030     -0.718590
  S       0.994715      1.597248     -1.795856
  C      -2.288610      0.950550     -1.966623
  H      -1.522987      1.154126     -2.731743
  H      -3.187703      0.535692     -2.459825
  H      -2.560714      1.914231     -1.502954
  C       0.354604     -3.192360     -0.919569
  H       0.331532     -4.246099     -0.581016
  H      -0.660762     -2.877197     -1.205923
  H       0.994573     -3.131268     -1.817503
  C       1.313678      2.588397      1.756802
  H       0.244232      2.662022      2.016453
  H       1.904322      3.069083      2.560790
  H       1.463100      3.145074      0.817555
  C       2.780934      2.040093     -1.672659
  H       3.395493      1.385852     -2.315242
  H       2.948777      3.086792     -1.987854
  H       3.110089      1.906392     -0.629477
