12
Coordinates from ORCA-job Mn_CO
  Mn  -2.19992909035109      1.75289689194313     -0.82022848645809
  C   -2.33919717254149     -0.14037709510143     -0.82023845315300
  C   -2.28761383838653      1.75290189869350     -3.27681004499891
  C   -2.28762645041811      1.75290233674383      1.63629806884158
  C   -2.33919976089271      3.64617064276692     -0.82023798587246
  C   -0.23106250818892      1.75289647554629     -0.82024631649853
  O   0.90111607758852      1.75289388374183     -0.82025467201723
  O   -2.45276115407250     -1.27136302798725     -0.82024470028174
  O   -2.77177904858222      1.75291401317411     -4.29222870915590
  O   -2.45276350525577      4.77715664406293     -0.82024384991906
  O   -2.77176544498182      1.75291472154416      2.65172946961569
  Br  -4.66247282391635      1.75288961487196     -0.82026000010332
