12
Coordinates from ORCA-job Mn_br_CO5_zero_singlet_triplet E -4291.711839672723
  Mn     -2.180663      1.752898     -0.820239
  C      -2.317862     -0.141753     -0.820244
  C      -2.349586      1.752901     -3.110975
  C      -2.349591      1.752901      1.470470
  C      -2.317865      3.647548     -0.820243
  C      -0.208596      1.752896     -0.820245
  O       0.923881      1.752894     -0.820248
  O      -2.427858     -1.272372     -0.820245
  O      -2.782639      1.752910     -4.150439
  O      -2.427864      4.778167     -0.820243
  O      -2.782627      1.752912      2.509941
  Br     -4.673785      1.752895     -0.820256
12
Coordinates from ORCA-job Mn_br_CO5_zero_singlet_triplet E -4291.706272900427
  Mn     -2.182415      1.752898     -0.820238
  C      -2.319180     -0.142683     -0.820243
  C      -2.345866      1.752901     -3.149351
  C      -2.345871      1.752901      1.508845
  C      -2.319183      3.648478     -0.820242
  C      -0.199206      1.752896     -0.820245
  O       0.931750      1.752894     -0.820248
  O      -2.428904     -1.274095     -0.820245
  O      -2.791781      1.752910     -4.184532
  O      -2.428910      4.779890     -0.820244
  O      -2.791770      1.752912      2.544033
  Br     -4.673720      1.752896     -0.820255
12
Coordinates from ORCA-job Mn_br_CO5_zero_singlet_triplet E -4291.693677713612
  Mn     -2.189369      1.752898     -0.820234
  C      -2.325682     -0.144537     -0.820242
  C      -2.331289      1.752900     -3.244726
  C      -2.331298      1.752900      1.604218
  C      -2.325684      3.650332     -0.820241
  C      -0.181466      1.752897     -0.820247
  O       0.948190      1.752895     -0.820251
  O      -2.434963     -1.276614     -0.820245
  O      -2.808586      1.752909     -4.264766
  O      -2.434967      4.782409     -0.820244
  O      -2.808578      1.752911      2.624265
  Br     -4.671361      1.752896     -0.820253
12
Coordinates from ORCA-job Mn_br_CO5_zero_singlet_triplet E -4291.688806702472
  Mn     -2.193802      1.752898     -0.820232
  C      -2.330314     -0.144614     -0.820242
  C      -2.320595      1.752900     -3.287320
  C      -2.320605      1.752900      1.646810
  C      -2.330316      3.650410     -0.820241
  C      -0.179667      1.752897     -0.820247
  O       0.950531      1.752895     -0.820252
  O      -2.439962     -1.276423     -0.820246
  O      -2.810949      1.752908     -4.300009
  O      -2.439965      4.782219     -0.820245
  O      -2.810943      1.752910      2.659508
  Br     -4.668467      1.752896     -0.820249
12
Coordinates from ORCA-job Mn_br_CO5_zero_singlet_triplet E -4291.688175099169
  Mn     -2.195249      1.752898     -0.820232
  C      -2.332057     -0.143943     -0.820241
  C      -2.315305      1.752900     -3.295384
  C      -2.315316      1.752901      1.654873
  C      -2.332059      3.649739     -0.820240
  C      -0.184657      1.752897     -0.820247
  O       0.946040      1.752895     -0.820252
  O      -2.442363     -1.275487     -0.820246
  O      -2.807712      1.752909     -4.306797
  O      -2.442366      4.781282     -0.820244
  O      -2.807705      1.752910      2.666295
  Br     -4.666305      1.752895     -0.820249
12
Coordinates from ORCA-job Mn_br_CO5_zero_singlet_triplet E -4291.687838452130
  Mn     -2.199756      1.752898     -0.820231
  C      -2.337944     -0.140586     -0.820240
  C      -2.294815      1.752900     -3.309599
  C      -2.294828      1.752901      1.669086
  C      -2.337945      3.646382     -0.820239
  C      -0.211438      1.752897     -0.820248
  O       0.921068      1.752895     -0.820254
  O      -2.451331     -1.271198     -0.820245
  O      -2.789551      1.752911     -4.319186
  O      -2.451333      4.776994     -0.820244
  O      -2.789544      1.752912      2.678683
  Br     -4.657638      1.752891     -0.820250
12
Coordinates from ORCA-job Mn_br_CO5_zero_singlet_triplet E -4291.689181291854
  Mn     -2.201804      1.752898     -0.820230
  C      -2.341094     -0.137896     -0.820239
  C      -2.281095      1.752900     -3.305456
  C      -2.281108      1.752902      1.664941
  C      -2.341096      3.643692     -0.820238
  C      -0.235286      1.752897     -0.820248
  O       0.898203      1.752895     -0.820255
  O      -2.456845     -1.268083     -0.820244
  O      -2.772855      1.752911     -4.316386
  O      -2.456846      4.773879     -0.820242
  O      -2.772848      1.752912      2.675883
  Br     -4.652381      1.752891     -0.820251
12
Coordinates from ORCA-job Mn_br_CO5_zero_singlet_triplet E -4291.691964270441
  Mn     -2.201098      1.752898     -0.820230
  C      -2.341013     -0.136579     -0.820238
  C      -2.276837      1.752900     -3.284585
  C      -2.276850      1.752902      1.644070
  C      -2.341015      3.642374     -0.820236
  C      -0.250928      1.752897     -0.820248
  O       0.882584      1.752895     -0.820256
  O      -2.457784     -1.266920     -0.820243
  O      -2.761027      1.752911     -4.299593
  O      -2.457785      4.772715     -0.820240
  O      -2.761019      1.752913      2.659089
  Br     -4.652283      1.752891     -0.820255
12
Coordinates from ORCA-job Mn_br_CO5_zero_singlet_triplet E -4291.693655637123
  Mn     -2.198524      1.752898     -0.820230
  C      -2.338003     -0.138092     -0.820238
  C      -2.286006      1.752901     -3.267024
  C      -2.286019      1.752902      1.626511
  C      -2.338005      3.643887     -0.820237
  C      -0.242813      1.752897     -0.820248
  O       0.889713      1.752895     -0.820256
  O      -2.453312     -1.269007     -0.820244
  O      -2.765388      1.752910     -4.284851
  O      -2.453314      4.774802     -0.820241
  O      -2.765379      1.752912      2.644348
  Br     -4.658005      1.752892     -0.820256
12
Coordinates from ORCA-job Mn_br_CO5_zero_singlet_triplet E -4291.693069333798
  Mn     -2.197116      1.752898     -0.820230
  C      -2.335883     -0.140306     -0.820240
  C      -2.295458      1.752901     -3.266788
  C      -2.295471      1.752901      1.626276
  C      -2.335885      3.646102     -0.820238
  C      -0.226471      1.752897     -0.820247
  O       0.905159      1.752895     -0.820255
  O      -2.449265     -1.271609     -0.820245
  O      -2.776157      1.752910     -4.284183
  O      -2.449268      4.777405     -0.820243
  O      -2.776147      1.752912      2.643682
  Br     -4.663092      1.752893     -0.820254
12
Coordinates from ORCA-job Mn_br_CO5_zero_singlet_triplet E -4291.691497833217
  Mn     -2.197751      1.752898     -0.820229
  C      -2.336263     -0.141286     -0.820240
  C      -2.296912      1.752901     -3.277784
  C      -2.296924      1.752902      1.637273
  C      -2.336264      3.647082     -0.820239
  C      -0.218514      1.752897     -0.820247
  O       0.913020      1.752895     -0.820254
  O      -2.448895     -1.272553     -0.820246
  O      -2.781775      1.752910     -4.293006
  O      -2.448897      4.778349     -0.820244
  O      -2.781765      1.752912      2.652506
  Br     -4.664115      1.752892     -0.820256
12
Coordinates from ORCA-job Mn_br_CO5_zero_singlet_triplet E -4291.691136552204
  Mn     -2.199076      1.752898     -0.820229
  C      -2.337931     -0.140564     -0.820239
  C      -2.291608      1.752901     -3.283040
  C      -2.291621      1.752902      1.642528
  C      -2.337933      3.646360     -0.820238
  C      -0.224508      1.752897     -0.820247
  O       0.907525      1.752894     -0.820255
  O      -2.451257     -1.271578     -0.820245
  O      -2.777714      1.752911     -4.297453
  O      -2.451258      4.777374     -0.820243
  O      -2.777702      1.752913      2.656953
  Br     -4.661973      1.752890     -0.820258
12
Coordinates from ORCA-job Mn_br_CO5_zero_singlet_triplet E -4291.691684804800
  Mn     -2.200224      1.752898     -0.820228
  C      -2.339631     -0.139362     -0.820238
  C      -2.284876      1.752901     -3.281570
  C      -2.284890      1.752902      1.641057
  C      -2.339633      3.645157     -0.820237
  C      -0.235612      1.752897     -0.820247
  O       0.896967      1.752895     -0.820256
  O      -2.454028     -1.270142     -0.820244
  O      -2.769780      1.752911     -4.296465
  O      -2.454029      4.775937     -0.820242
  O      -2.769768      1.752913      2.655964
  Br     -4.659551      1.752889     -0.820260
12
Coordinates from ORCA-job Mn_br_CO5_zero_singlet_triplet E -4291.692073818073
  Mn     -2.199803      1.752898     -0.820228
  C      -2.339167     -0.139593     -0.820238
  C      -2.286231      1.752901     -3.277688
  C      -2.286244      1.752902      1.637175
  C      -2.339168      3.645388     -0.820237
  C      -0.234774      1.752897     -0.820247
  O       0.897636      1.752895     -0.820256
  O      -2.453343     -1.270476     -0.820244
  O      -2.770043      1.752910     -4.293215
  O      -2.453344      4.776272     -0.820242
  O      -2.770030      1.752912      2.652714
  Br     -4.660545      1.752890     -0.820260
12
Coordinates from ORCA-job Mn_br_CO5_zero_singlet_triplet E -4291.692223395071
  Mn     -2.198931      1.752898     -0.820228
  C      -2.337991     -0.140635     -0.820238
  C      -2.290937      1.752901     -3.273812
  C      -2.290950      1.752902      1.633299
  C      -2.337992      3.646430     -0.820237
  C      -0.227956      1.752897     -0.820247
  O       0.903959      1.752895     -0.820256
  O      -2.451253     -1.271761     -0.820245
  O      -2.774210      1.752911     -4.289774
  O      -2.451254      4.777557     -0.820243
  O      -2.774197      1.752912      2.649275
  Br     -4.663342      1.752890     -0.820260
12
Coordinates from ORCA-job Mn_br_CO5_zero_singlet_triplet E -4291.692023012839
  Mn     -2.199391      1.752898     -0.820227
  C      -2.338544     -0.140421     -0.820238
  C      -2.289275      1.752901     -3.276091
  C      -2.289289      1.752902      1.635578
  C      -2.338545      3.646216     -0.820237
  C      -0.229556      1.752897     -0.820247
  O       0.902517      1.752895     -0.820256
  O      -2.452019     -1.271461     -0.820245
  O      -2.773168      1.752911     -4.291681
  O      -2.452020      4.777257     -0.820243
  O      -2.773155      1.752912      2.651181
  Br     -4.662610      1.752891     -0.820260
12
Coordinates from ORCA-job Mn_br_CO5_zero_singlet_triplet E -4291.691952520402
  Mn     -2.199809      1.752898     -0.820227
  C      -2.339056     -0.140314     -0.820238
  C      -2.287857      1.752901     -3.276978
  C      -2.287871      1.752902      1.636464
  C      -2.339057      3.646108     -0.820237
  C      -0.230960      1.752897     -0.820247
  O       0.901217      1.752895     -0.820256
  O      -2.452656     -1.271300     -0.820244
  O      -2.772026      1.752911     -4.292393
  O      -2.452657      4.777095     -0.820243
  O      -2.772013      1.752913      2.651893
  Br     -4.662309      1.752890     -0.820260
12
Coordinates from ORCA-job Mn_br_CO5_zero_singlet_triplet E -4291.691870798199
  Mn     -2.199993      1.752897     -0.820226
  C      -2.339268     -0.140371     -0.820237
  C      -2.287451      1.752901     -3.276775
  C      -2.287465      1.752902      1.636261
  C      -2.339270      3.646166     -0.820237
  C      -0.231153      1.752897     -0.820246
  O       0.901026      1.752895     -0.820256
  O      -2.452841     -1.271355     -0.820244
  O      -2.771657      1.752912     -4.292174
  O      -2.452842      4.777150     -0.820243
  O      -2.771643      1.752913      2.651674
  Br     -4.662499      1.752891     -0.820261
