21
Coordinates from ORCA-job Sing_Q_Zero
  Fe  0.62299006780997     -0.01209688426951     -0.24848776970390
  S   1.02866153965404     -2.04997820438239      0.36076933681240
  S   1.63375056415914      1.02622460697376      1.36640766680916
  S   -1.50041201968507     -0.08747697865929     -0.57154822743184
  S   1.22748219074873      0.97311512316149     -2.05631321814286
  C   -2.08263369143550      1.41311739475799     -1.42619753148764
  H   -1.59733388565888      1.50584355965408     -2.40658811522916
  H   -3.16916955267703      1.31701894101692     -1.55732479777792
  H   -1.86506000174119      2.30857583950144     -0.83063612113238
  C   0.62594572614800     -3.07859807053155     -1.09016804747919
  H   0.98209215646551     -4.09733010973649     -0.88443288931107
  H   -0.46146719096189     -3.09464296039538     -1.24086565099783
  H   1.11458340186528     -2.69251651017410     -1.99276563994010
  C   0.63132625372973      2.52908569220834      1.62009105929606
  H   -0.40521305577462      2.26413415761665      1.86211624809859
  H   1.07187031507727      3.08068712699517      2.46200113913293
  H   0.65293759930465      3.16155440642784      0.72293218353272
  C   2.94147847906132      1.57549014228799     -1.88006858197657
  H   3.61947843421043      0.74552856529133     -1.64992288019514
  H   3.22754813653351      2.02472926999924     -2.84106205044912
  H   3.00350957316961      2.32515013225445     -1.08208602242813
