21
Coordinates from ORCA-job Rubredoxin_zero_singlet_quintet E -3015.207613403586
  Fe      0.661665     -0.010554     -0.277264
  S       1.051446     -2.042016      0.350699
  S       1.718508      0.993267      1.322517
  S      -1.451670     -0.087499     -0.658269
  S       1.236908      0.996779     -2.084370
  C      -2.042495      1.403960     -1.518034
  H      -1.551165      1.506232     -2.493033
  H      -3.123099      1.288709     -1.658372
  H      -1.846727      2.300499     -0.921673
  C       0.557559     -3.116078     -1.019193
  H       0.866947     -4.131693     -0.755390
  H      -0.523510     -3.084888     -1.142472
  H       1.031825     -2.809341     -1.954207
  C       0.688399      2.458534      1.669992
  H      -0.327019      2.159110      1.956155
  H       1.157868      2.997757      2.503353
  H       0.646402      3.117715      0.793074
  C       2.890243      1.692152     -1.887929
  H       3.588744      0.923321     -1.596396
  H       3.191030      2.111447     -2.856827
  H       2.880508      2.470202     -1.136511
21
Coordinates from ORCA-job Rubredoxin_zero_singlet_quintet E -3015.209315131458
  Fe      0.618175      0.030224     -0.237248
  S       1.030392     -2.004347      0.365638
  S       1.659565      1.028948      1.376762
  S      -1.495215     -0.066945     -0.612600
  S       1.187203      1.061876     -2.032471
  C      -2.098073      1.409965     -1.490242
  H      -1.596556      1.510945     -2.461717
  H      -3.178501      1.280575     -1.640945
  H      -1.918322      2.314968     -0.897007
  C       0.642865     -3.058463     -1.062322
  H       0.970233     -4.076977     -0.813578
  H      -0.439676     -3.055719     -1.244501
  H       1.160335     -2.710920     -1.964593
  C       0.641084      2.507601      1.702560
  H      -0.382973      2.220098      1.970073
  H       1.100608      3.043759      2.544334
  H       0.623118      3.165069      0.823408
  C       2.931661      1.556616     -1.928902
  H       3.569253      0.685067     -1.748903
  H       3.202791      2.012819     -2.891406
  H       3.074399      2.282457     -1.120488
21
Coordinates from ORCA-job Rubredoxin_zero_singlet_quintet E -3015.208815921342
  Fe      0.616651     -0.027780     -0.240448
  S       1.011891     -2.066499      0.360573
  S       1.661389      0.965175      1.376067
  S      -1.498408     -0.107068     -0.610374
  S       1.201924      0.997322     -2.033868
  C      -2.087635      1.378608     -1.483775
  H      -1.569827      1.487286     -2.446827
  H      -3.166964      1.252946     -1.653373
  H      -1.915058      2.278812     -0.878695
  C       0.585407     -3.115489     -1.067817
  H       0.913373     -4.140232     -0.836482
  H      -0.505651     -3.106198     -1.225100
  H       1.086226     -2.765254     -1.980843
  C       0.731725      2.518101      1.607132
  H      -0.320254      2.307386      1.835417
  H       1.187810      3.052497      2.452364
  H       0.797440      3.143162      0.706894
  C       2.887796      1.667646     -1.832980
  H       3.605172      0.859803     -1.610115
  H       3.165234      2.145850     -2.783331
  H       2.914123      2.411541     -1.018570
21
Coordinates from ORCA-job Rubredoxin_zero_singlet_quintet E -3015.209408267155
  Fe      0.604611     -0.010920     -0.243972
  S       0.996044     -2.045779      0.372052
  S       1.644074      0.992186      1.369628
  S      -1.509702     -0.089725     -0.616401
  S       1.198437      0.999150     -2.042683
  C      -2.103939      1.413083     -1.456481
  H      -1.584469      1.546608     -2.414844
  H      -3.181314      1.286756     -1.631637
  H      -1.937308      2.299006     -0.830591
  C       0.632734     -3.095097     -1.072297
  H       0.964050     -4.115105     -0.832411
  H      -0.449080     -3.097741     -1.266488
  H       1.160378     -2.736347     -1.964814
  C       0.683347      2.522371      1.623481
  H      -0.362231      2.287010      1.857002
  H       1.133729      3.057612      2.470916
  H       0.729190      3.157681      0.729184
  C       2.912539      1.598975     -1.870127
  H       3.596558      0.764633     -1.667728
  H       3.190362      2.072754     -2.821931
  H       2.984355      2.330505     -1.054010
21
Coordinates from ORCA-job Rubredoxin_zero_singlet_quintet E -3015.209512347226
  Fe      0.617936      0.008727     -0.231143
  S       1.035543     -2.028031      0.361279
  S       1.654200      1.009135      1.386604
  S      -1.498565     -0.088015     -0.584250
  S       1.192389      1.039369     -2.023899
  C      -2.095774      1.377044     -1.486872
  H      -1.584953      1.464821     -2.454694
  H      -3.174613      1.247527     -1.646025
  H      -1.920271      2.289406     -0.903663
  C       0.610923     -3.066402     -1.074225
  H       0.959057     -4.085576     -0.860591
  H      -0.476773     -3.073940     -1.216163
  H       1.093876     -2.695532     -1.985638
  C       0.677335      2.525442      1.661358
  H      -0.364849      2.275640      1.895061
  H       1.123600      3.055399      2.514035
  H       0.713528      3.171741      0.774503
  C       2.925038      1.592305     -1.883754
  H       3.589180      0.738902     -1.716882
  H       3.189559      2.078656     -2.832647
  H       3.036002      2.300998     -1.056546
21
Coordinates from ORCA-job Rubredoxin_zero_singlet_quintet E -3015.209667100143
  Fe      0.612809      0.000015     -0.240380
  S       1.018079     -2.034267      0.369289
  S       1.647787      1.010049      1.372644
  S      -1.504032     -0.087011     -0.592764
  S       1.201135      1.009986     -2.039976
  C      -2.098888      1.398199     -1.463984
  H      -1.586888      1.505880     -2.429302
  H      -3.178055      1.274183     -1.627018
  H      -1.922209      2.297591     -0.860870
  C       0.624688     -3.074639     -1.075083
  H       0.972624     -4.093233     -0.856148
  H      -0.460960     -3.085733     -1.237048
  H       1.124164     -2.701096     -1.976895
  C       0.667885      2.525189      1.642386
  H      -0.374469      2.273977      1.873926
  H       1.110920      3.057509      2.495354
  H       0.705303      3.169559      0.754210
  C       2.926868      1.584717     -1.882158
  H       3.599149      0.738848     -1.700806
  H       3.196777      2.066798     -2.831804
  H       3.019679      2.301094     -1.057722
21
Coordinates from ORCA-job Rubredoxin_zero_singlet_quintet E -3015.209821233143
  Fe      0.613757     -0.006870     -0.247741
  S       1.018716     -2.039290      0.369282
  S       1.637176      1.013739      1.366853
  S      -1.503260     -0.093894     -0.596747
  S       1.213812      0.991519     -2.049167
  C      -2.099693      1.406981     -1.440388
  H      -1.588860      1.531691     -2.404250
  H      -3.179270      1.286620     -1.604306
  H      -1.921754      2.295324     -0.821279
  C       0.629116     -3.076313     -1.079797
  H       0.983363     -4.094237     -0.866840
  H      -0.457134     -3.092310     -1.239151
  H       1.125827     -2.694941     -1.979996
  C       0.655163      2.529880      1.622150
  H      -0.389112      2.279474      1.845809
  H       1.090693      3.065612      2.476853
  H       0.700337      3.170383      0.731569
  C       2.935833      1.577046     -1.877863
  H       3.610688      0.733841     -1.689882
  H       3.209609      2.058731     -2.826571
  H       3.017358      2.294628     -1.052690
21
Coordinates from ORCA-job Rubredoxin_zero_singlet_quintet E -3015.210030560477
  Fe      0.608053     -0.009967     -0.245203
  S       1.004423     -2.043040      0.377251
  S       1.637701      1.018788      1.361573
  S      -1.513200     -0.080901     -0.568181
  S       1.213488      0.967994     -2.054990
  C      -2.094756      1.411371     -1.437984
  H      -1.594762      1.504857     -2.410961
  H      -3.178527      1.307477     -1.585121
  H      -1.892549      2.309954     -0.841418
  C       0.637914     -3.068775     -1.086915
  H       0.996967     -4.086590     -0.880911
  H      -0.446677     -3.089837     -1.257101
  H       1.142454     -2.673806     -1.976861
  C       0.650188      2.529950      1.623973
  H      -0.390647      2.274284      1.857618
  H       1.090616      3.068871      2.474130
  H       0.684105      3.169423      0.732187
  C       2.930987      1.566842     -1.878297
  H       3.608544      0.728153     -1.678230
  H       3.206485      2.040738     -2.830326
  H       3.001560      2.291830     -1.058384
21
Coordinates from ORCA-job Rubredoxin_zero_singlet_quintet E -3015.210029738904
  Fe      0.616798     -0.010809     -0.249311
  S       1.023121     -2.043718      0.368459
  S       1.632475      1.022091      1.364130
  S      -1.503607     -0.091816     -0.576000
  S       1.224028      0.973067     -2.055235
  C      -2.091934      1.407670     -1.428814
  H      -1.595976      1.511835     -2.402707
  H      -3.175954      1.302259     -1.572936
  H      -1.889917      2.300958     -0.824399
  C       0.629286     -3.069385     -1.088274
  H       0.990792     -4.087325     -0.887585
  H      -0.458063     -3.089404     -1.239296
  H       1.118189     -2.675405     -1.987262
  C       0.640684      2.532167      1.616588
  H      -0.400583      2.275230      1.846800
  H       1.076741      3.075056      2.466467
  H       0.677049      3.168693      0.722792
  C       2.941463      1.569365     -1.876730
  H       3.616928      0.730197     -1.672627
  H       3.220143      2.040270     -2.829304
  H       3.010701      2.296619     -1.058905
21
Coordinates from ORCA-job Rubredoxin_zero_singlet_quintet E -3015.209986778008
  Fe      0.619543     -0.010140     -0.248941
  S       1.027890     -2.044139      0.365201
  S       1.633241      1.022809      1.365975
  S      -1.501168     -0.091874     -0.575525
  S       1.225064      0.976636     -2.054144
  C      -2.089128      1.406512     -1.430360
  H      -1.596268      1.507049     -2.406189
  H      -3.173735      1.302280     -1.570713
  H      -1.883812      2.301227     -0.829290
  C       0.626216     -3.070401     -1.088384
  H       0.986187     -4.088647     -0.886901
  H      -0.461556     -3.088649     -1.235960
  H       1.112191     -2.679113     -1.990094
  C       0.638668      2.530940      1.619405
  H      -0.401003      2.271902      1.854366
  H       1.077245      3.076515      2.466262
  H       0.669755      3.166177      0.724486
  C       2.942146      1.572087     -1.877875
  H       3.617008      0.734390     -1.667035
  H       3.223138      2.036681     -2.832891
  H       3.010743      2.305374     -1.065543
21
Coordinates from ORCA-job Rubredoxin_zero_singlet_quintet E -3015.209931338161
  Fe      0.621987     -0.010667     -0.248734
  S       1.030208     -2.046495      0.362123
  S       1.633728      1.024212      1.366834
  S      -1.499822     -0.089726     -0.572790
  S       1.226771      0.976085     -2.054660
  C      -2.084684      1.408591     -1.429731
  H      -1.596940      1.502854     -2.408741
  H      -3.170507      1.308711     -1.563741
  H      -1.871938      2.304794     -0.833569
  C       0.624707     -3.073388     -1.089382
  H       0.982461     -4.091961     -0.885876
  H      -0.463074     -3.089991     -1.236891
  H       1.110312     -2.685077     -1.992583
  C       0.634475      2.529061      1.621596
  H      -0.402519      2.266428      1.864212
  H       1.076819      3.079258      2.463491
  H       0.656956      3.161905      0.724720
  C       2.942008      1.574598     -1.879474
  H       3.617688      0.741260     -1.655184
  H       3.227185      2.028030     -2.838672
  H       3.006542      2.319134     -1.077097
21
Coordinates from ORCA-job Rubredoxin_zero_singlet_quintet E -3015.209892628147
  Fe      0.622831     -0.011366     -0.248843
  S       1.029803     -2.048251      0.361116
  S       1.633945      1.025231      1.366466
  S      -1.499761     -0.088023     -0.571633
  S       1.227617      0.974195     -2.055791
  C      -2.082632      1.411213     -1.428267
  H      -1.597141      1.503206     -2.408617
  H      -3.169046      1.314001     -1.559532
  H      -1.866049      2.307495     -0.833614
  C       0.624944     -3.076060     -1.089774
  H       0.981485     -4.094749     -0.884683
  H      -0.462652     -3.092113     -1.238924
  H       1.111870     -2.689390     -1.993005
  C       0.632020      2.528195      1.621834
  H      -0.403827      2.263461      1.867031
  H       1.075177      3.080308      2.462047
  H       0.651038      3.160248      0.724320
  C       2.941715      1.575550     -1.880389
  H       3.618635      0.745020     -1.649473
  H       3.228652      2.023826     -2.841538
  H       3.003743      2.325619     -1.082881
21
Coordinates from ORCA-job Rubredoxin_zero_singlet_quintet E -3015.211234262463
  Fe      0.622683     -0.011866     -0.248627
  S       1.028808     -2.049338      0.360919
  S       1.633548      1.025594      1.366537
  S      -1.500322     -0.087522     -0.571565
  S       1.227451      0.973407     -2.056036
  C      -2.082621      1.412674     -1.426878
  H      -1.597388      1.505021     -2.407332
  H      -3.169146      1.316295     -1.557888
  H      -1.865208      2.308429     -0.831716
  C       0.625851     -3.077671     -1.090135
  H       0.982032     -4.096371     -0.884370
  H      -0.461560     -3.093761     -1.240796
  H       1.114157     -2.691458     -1.992844
  C       0.631493      2.528629      1.620806
  H      -0.404650      2.263882      1.864738
  H       1.073591      3.080747      2.461570
  H       0.651600      3.160630      0.723281
  C       2.941458      1.575390     -1.880241
  H       3.619005      0.745456     -1.648815
  H       3.228288      2.023413     -2.841569
  H       3.003295      2.326035     -1.083189
21
Coordinates from ORCA-job Rubredoxin_zero_singlet_quintet E -3015.207714927290
  Fe      0.603617     -0.048924     -0.221962
  S       0.956796     -2.130597      0.337746
  S       1.597091      1.031151      1.393232
  S      -1.545602     -0.061845     -0.569608
  S       1.199097      0.944155     -2.049846
  C      -2.091280      1.495358     -1.340537
  H      -1.615591      1.614721     -2.323543
  H      -3.182454      1.446578     -1.462384
  H      -1.830003      2.356356     -0.711432
  C       0.684080     -3.191349     -1.120227
  H       1.007139     -4.212537     -0.869713
  H      -0.384781     -3.205201     -1.378954
  H       1.270375     -2.839108     -1.979580
  C       0.626688      2.567181      1.538453
  H      -0.435264      2.330938      1.678397
  H       0.993507      3.119320      2.414414
  H       0.753776      3.183090      0.638541
  C       2.910566      1.577352     -1.848448
  H       3.628905      0.783545     -1.598527
  H       3.186991      2.020922     -2.816950
  H       2.968711      2.356510     -1.073224
21
Coordinates from ORCA-job Rubredoxin_zero_singlet_quintet E -3015.211077142265
  Fe      0.609216     -0.023244     -0.241317
  S       1.007002     -2.065419      0.362960
  S       1.618133      1.014304      1.376319
  S      -1.515424     -0.091066     -0.570278
  S       1.217155      0.963846     -2.048383
  C      -2.092724      1.420950     -1.407738
  H      -1.615630      1.517161     -2.391831
  H      -3.181170      1.335308     -1.529723
  H      -1.861817      2.309930     -0.807482
  C       0.643900     -3.089678     -1.101272
  H       0.988056     -4.110745     -0.886924
  H      -0.438332     -3.099856     -1.285763
  H       1.162923     -2.705228     -1.987478
  C       0.644765      2.541637      1.594319
  H      -0.406962      2.302269      1.793736
  H       1.064401      3.080426      2.454957
  H       0.718218      3.174877      0.700448
  C       2.928700      1.572013     -1.864673
  H       3.608915      0.746441     -1.625546
  H       3.218326      2.016428     -2.826936
  H       2.984714      2.327261     -1.071545
21
Coordinates from ORCA-job Rubredoxin_zero_singlet_quintet E -3015.211144316145
  Fe      0.621759     -0.013764     -0.247317
  S       1.026677     -2.052081      0.361744
  S       1.633540      1.024794      1.366839
  S      -1.501749     -0.089147     -0.572285
  S       1.224972      0.971969     -2.055644
  C      -2.083181      1.413139     -1.424393
  H      -1.604172      1.502804     -2.408195
  H      -3.170989      1.321432     -1.548100
  H      -1.857764      2.308336     -0.831395
  C       0.627626     -3.080390     -1.090387
  H       0.976728     -4.100805     -0.880892
  H      -0.458875     -3.090673     -1.248364
  H       1.124535     -2.698334     -1.990233
  C       0.634354      2.530387      1.617653
  H      -0.407035      2.268743      1.841765
  H       1.064391      3.072897      2.470833
  H       0.672749      3.170037      0.726132
  C       2.938214      1.576893     -1.879665
  H       3.616884      0.748789     -1.644576
  H       3.225111      2.021941     -2.842388
  H       2.998589      2.330651     -1.085284
21
Coordinates from ORCA-job Rubredoxin_zero_singlet_quintet E -3015.211178451955
  Fe      0.623063     -0.011874     -0.247638
  S       1.029440     -2.049767      0.361508
  S       1.634615      1.026970      1.366404
  S      -1.500425     -0.088646     -0.571568
  S       1.225961      0.973906     -2.055882
  C      -2.082601      1.411658     -1.426740
  H      -1.600767      1.501456     -2.409135
  H      -3.169827      1.317577     -1.553716
  H      -1.860872      2.307834     -0.833841
  C       0.625668     -3.077881     -1.089617
  H       0.979383     -4.097394     -0.883431
  H      -0.461661     -3.091487     -1.241284
  H       1.116228     -2.692983     -1.991704
  C       0.632405      2.529880      1.620769
  H      -0.406437      2.265501      1.853308
  H       1.067038      3.075949      2.469335
  H       0.662197      3.167282      0.727324
  C       2.940674      1.575357     -1.881089
  H       3.618323      0.744885     -1.651569
  H       3.225894      2.024360     -2.842442
  H       3.004066      2.325033     -1.083142
21
Coordinates from ORCA-job Rubredoxin_zero_singlet_quintet E -3015.211214238196
  Fe      0.625671     -0.008451     -0.247679
  S       1.034289     -2.046592      0.359904
  S       1.635662      1.031487      1.366876
  S      -1.498366     -0.087518     -0.570815
  S       1.228351      0.978557     -2.055512
  C      -2.081931      1.409561     -1.430787
  H      -1.589970      1.503545     -2.407723
  H      -3.167001      1.308362     -1.569886
  H      -1.872740      2.306621     -0.834663
  C       0.621524     -3.074489     -1.089076
  H       0.989571     -4.090766     -0.892187
  H      -0.467605     -3.099427     -1.224757
  H       1.094872     -2.680734     -1.996432
  C       0.628589      2.530232      1.625041
  H      -0.402771      2.261529      1.884409
  H       1.078392      3.090127      2.456515
  H       0.633699      3.156132      0.723076
  C       2.946260      1.571699     -1.881478
  H       3.621913      0.735544     -1.667575
  H       3.227292      2.032882     -2.838243
  H       3.016664      2.309315     -1.073159
21
Coordinates from ORCA-job Rubredoxin_zero_singlet_quintet E -3015.211183564677
  Fe      0.628199     -0.006532     -0.247752
  S       1.037655     -2.045481      0.357937
  S       1.637242      1.033870      1.367479
  S      -1.496484     -0.087524     -0.572641
  S       1.230503      0.982917     -2.055021
  C      -2.081686      1.408078     -1.433998
  H      -1.579991      1.508762     -2.405287
  H      -3.164427      1.299838     -1.585108
  H      -1.885206      2.304586     -0.832661
  C       0.617267     -3.074055     -1.088331
  H       0.995805     -4.087697     -0.897967
  H      -0.473095     -3.107389     -1.211447
  H       1.077036     -2.674611     -2.000115
  C       0.627517      2.530486      1.626735
  H      -0.397391      2.259554      1.908499
  H       1.089927      3.102642      2.442795
  H       0.612449      3.145339      0.717365
  C       2.949896      1.571377     -1.880147
  H       3.624614      0.731676     -1.677526
  H       3.228401      2.042055     -2.833004
  H       3.024134      2.299727     -1.063954
21
Coordinates from ORCA-job Rubredoxin_zero_singlet_quintet E -3015.211081674355
  Fe      0.631531     -0.004024     -0.246271
  S       1.041739     -2.045025      0.354590
  S       1.640623      1.034982      1.370614
  S      -1.494390     -0.089399     -0.576852
  S       1.232211      0.992931     -2.051629
  C      -2.083765      1.403218     -1.440253
  H      -1.563966      1.518223     -2.400359
  H      -3.161480      1.280749     -1.614213
  H      -1.912695      2.297993     -0.828456
  C       0.609872     -3.074033     -1.087763
  H       1.003270     -4.083782     -0.907371
  H      -0.482034     -3.119207     -1.192176
  H       1.049230     -2.666366     -2.005871
  C       0.631377      2.532288      1.627177
  H      -0.384460      2.262023      1.940846
  H       1.112403      3.122636      2.419134
  H       0.589133      3.128695      0.706523
  C       2.953935      1.573245     -1.874875
  H       3.626354      0.727349     -1.690869
  H       3.229380      2.059576     -2.820702
  H       3.034097      2.285542     -1.045372
21
Coordinates from ORCA-job Rubredoxin_zero_singlet_quintet E -3015.210935003611
  Fe      0.630788     -0.004154     -0.240678
  S       1.040615     -2.048416      0.352139
  S       1.642240      1.028920      1.379561
  S      -1.496501     -0.095770     -0.580959
  S       1.229297      1.006077     -2.041878
  C      -2.091339      1.393091     -1.446686
  H      -1.556175      1.522198     -2.396491
  H      -3.163839      1.256527     -1.640775
  H      -1.944580      2.285919     -0.825579
  C       0.603975     -3.074383     -1.090649
  H       1.007097     -4.081665     -0.918565
  H      -0.488647     -3.127236     -1.184204
  H       1.030483     -2.659095     -2.011332
  C       0.647031      2.538293      1.620781
  H      -0.366902      2.280087      1.950501
  H       1.141226      3.139575      2.396175
  H       0.597592      3.118163      0.690019
  C       2.952949      1.578593     -1.861670
  H       3.622055      0.726514     -1.694180
  H       3.227692      2.079172     -2.800172
  H       3.037306      2.275206     -1.019506
21
Coordinates from ORCA-job Rubredoxin_zero_singlet_quintet E -3015.210591849346
  Fe      0.627764     -0.005615     -0.226984
  S       1.038759     -2.056378      0.347694
  S       1.646321      1.012177      1.400550
  S      -1.501615     -0.113214     -0.588680
  S       1.218720      1.036001     -2.018177
  C      -2.106985      1.366551     -1.461845
  H      -1.563350      1.505581     -2.405453
  H      -3.174955      1.214035     -1.668255
  H      -1.981629      2.260211     -0.837086
  C       0.592116     -3.074253     -1.097186
  H       0.995541     -4.082488     -0.932325
  H      -0.501465     -3.124857     -1.182818
  H       1.010921     -2.654819     -2.019479
  C       0.685512      2.549333      1.608426
  H      -0.335669      2.318769      1.936279
  H       1.188745      3.153779      2.375393
  H       0.652844      3.112795      0.666905
  C       2.945346      1.596633     -1.834335
  H       3.607852      0.736346     -1.681998
  H       3.223235      2.109691     -2.765037
  H       3.034356      2.277334     -0.979739
21
Coordinates from ORCA-job Rubredoxin_zero_singlet_quintet E -3015.210404075416
  Fe      0.621195     -0.007417     -0.213802
  S       1.036679     -2.061694      0.346696
  S       1.648460      0.994183      1.419342
  S      -1.508184     -0.131431     -0.591935
  S       1.202795      1.061607     -1.995480
  C      -2.119253      1.339393     -1.475713
  H      -1.586135      1.467565     -2.426906
  H      -3.189430      1.185116     -1.669022
  H      -1.986873      2.239680     -0.862255
  C       0.584851     -3.070427     -1.102891
  H       0.966715     -4.086147     -0.933040
  H      -0.508654     -3.099086     -1.200306
  H       1.020696     -2.659533     -2.021157
  C       0.722888      2.557005      1.600750
  H      -0.314966      2.352388      1.891099
  H       1.214170      3.144399      2.388377
  H       0.737786      3.124828      0.661354
  C       2.932038      1.614770     -1.813986
  H       3.589759      0.750991     -1.660518
  H       3.213677      2.125398     -2.744841
  H       3.024152      2.296027     -0.959917
21
Coordinates from ORCA-job Rubredoxin_zero_singlet_quintet E -3015.210404616428
  Fe      0.609499     -0.009305     -0.201460
  S       1.033559     -2.063902      0.349276
  S       1.646036      0.975191      1.436053
  S      -1.517439     -0.150576     -0.591871
  S       1.180917      1.082887     -1.973772
  C      -2.129268      1.313057     -1.486984
  H      -1.612384      1.420986     -2.449680
  H      -3.203830      1.164212     -1.659538
  H      -1.978554      2.222112     -0.891481
  C       0.582659     -3.063449     -1.107473
  H       0.929836     -4.089532     -0.925694
  H      -0.508542     -3.059166     -1.230845
  H       1.052237     -2.669044     -2.016383
  C       0.759705      2.563617      1.595809
  H      -0.299760      2.387954      1.818918
  H       1.219289      3.118094      2.425315
  H       0.849408      3.149008      0.671449
  C       2.913554      1.629422     -1.799509
  H       3.568834      0.764617     -1.642721
  H       3.195033      2.134961     -2.733201
  H       3.011577      2.316471     -0.950360
21
Coordinates from ORCA-job Rubredoxin_zero_singlet_quintet E -3015.210508379992
  Fe      0.603121     -0.008120     -0.198319
  S       1.033866     -2.061107      0.351174
  S       1.644460      0.969061      1.439703
  S      -1.521699     -0.156095     -0.589592
  S       1.169197      1.089809     -1.967845
  C      -2.129690      1.303982     -1.493502
  H      -1.624560      1.393116     -2.464379
  H      -3.207794      1.163660     -1.650796
  H      -1.961523      2.219687     -0.913439
  C       0.583214     -3.059843     -1.106616
  H       0.915054     -4.089833     -0.918020
  H      -0.506187     -3.041671     -1.242618
  H       1.069141     -2.674935     -2.011079
  C       0.771366      2.564515      1.601367
  H      -0.297321      2.399589      1.784980
  H       1.208230      3.095740      2.457941
  H       0.900705      3.166688      0.692579
  C       2.903791      1.632942     -1.800433
  H       3.560256      0.769282     -1.643641
  H       3.181054      2.136858     -2.736381
  H       3.007687      2.324289     -0.955235
21
Coordinates from ORCA-job Rubredoxin_zero_singlet_quintet E -3015.210608852788
  Fe      0.602987     -0.005210     -0.201144
  S       1.037810     -2.057012      0.349911
  S       1.643797      0.971891      1.436734
  S      -1.520999     -0.153327     -0.588765
  S       1.168471      1.089535     -1.971465
  C      -2.125250      1.306183     -1.496532
  H      -1.625885      1.384552     -2.471340
  H      -3.205255      1.172374     -1.646430
  H      -1.946490      2.224977     -0.924725
  C       0.583409     -3.059840     -1.103952
  H       0.918610     -4.088729     -0.915017
  H      -0.506316     -3.044799     -1.236778
  H       1.066419     -2.675584     -2.010287
  C       0.765283      2.562599      1.610827
  H      -0.302563      2.394204      1.796182
  H       1.202447      3.089251      2.470076
  H       0.891293      3.171145      0.705793
  C       2.903790      1.630251     -1.807329
  H       3.561533      0.767503     -1.651342
  H       3.177953      2.134032     -2.744392
  H       3.011322      2.323619     -0.964175
21
Coordinates from ORCA-job Rubredoxin_zero_singlet_quintet E -3015.210691680297
  Fe      0.597434     -0.004990     -0.200464
  S       1.035234     -2.057119      0.348890
  S       1.636468      0.969175      1.440115
  S      -1.525711     -0.153821     -0.589284
  S       1.164817      1.090625     -1.968942
  C      -2.127347      1.306435     -1.497878
  H      -1.629979      1.379966     -2.474118
  H      -3.208135      1.176399     -1.645418
  H      -1.943502      2.226202     -0.929362
  C       0.586940     -3.060890     -1.106203
  H       0.930416     -4.087556     -0.920005
  H      -0.502874     -3.053996     -1.238281
  H       1.066989     -2.671103     -2.011737
  C       0.768807      2.565798      1.610596
  H      -0.299698      2.406045      1.799930
  H       1.212105      3.092676      2.466569
  H       0.896668      3.169979      0.702897
  C       2.900793      1.627437     -1.803296
  H       3.558104      0.763763     -1.650755
  H       3.174193      2.134308     -2.739000
  H       3.010641      2.318283     -0.958405
21
Coordinates from ORCA-job Rubredoxin_zero_singlet_quintet E -3015.210670657759
  Fe      0.596719     -0.003815     -0.201309
  S       1.037098     -2.056913      0.345748
  S       1.634836      0.968488      1.441126
  S      -1.526179     -0.154280     -0.593188
  S       1.164400      1.093829     -1.968605
  C      -2.127842      1.306126     -1.501515
  H      -1.629748      1.379583     -2.477426
  H      -3.208439      1.176000     -1.650192
  H      -1.944463      2.225923     -0.932919
  C       0.585679     -3.063754     -1.106027
  H       0.935963     -4.088445     -0.921760
  H      -0.504943     -3.062897     -1.231532
  H       1.058195     -2.671759     -2.014561
  C       0.770807      2.566745      1.612813
  H      -0.295858      2.409276      1.814200
  H       1.223785      3.097519      2.461289
  H       0.889655      3.166271      0.700839
  C       2.900327      1.629043     -1.800920
  H       3.557365      0.764961     -1.649180
  H       3.174480      2.136952     -2.735887
  H       3.010528      2.318764     -0.955147
21
Coordinates from ORCA-job Rubredoxin_zero_singlet_quintet E -3015.210647868367
  Fe      0.595760     -0.003681     -0.201288
  S       1.037058     -2.057348      0.344642
  S       1.634526      0.966852      1.441836
  S      -1.526938     -0.155190     -0.595477
  S       1.163538      1.095233     -1.967964
  C      -2.129542      1.304875     -1.503628
  H      -1.629843      1.380206     -2.478578
  H      -3.209637      1.173062     -1.654360
  H      -1.948796      2.224317     -0.933604
  C       0.585165     -3.065120     -1.106227
  H       0.935929     -4.089562     -0.921612
  H      -0.505611     -3.064675     -1.230707
  H       1.056532     -2.673476     -2.015505
  C       0.774832      2.567553      1.612742
  H      -0.291761      2.412688      1.816568
  H       1.230881      3.098793      2.459268
  H       0.892857      3.165342      0.699526
  C       2.899053      1.631188     -1.798449
  H       3.555808      0.767087     -1.645351
  H       3.174671      2.138398     -2.733346
  H       3.007884      2.321073     -0.952637
21
Coordinates from ORCA-job Rubredoxin_zero_singlet_quintet E -3015.210632992309
  Fe      0.594257     -0.003105     -0.201396
  S       1.037980     -2.057294      0.343096
  S       1.633702      0.964886      1.442777
  S      -1.527786     -0.157069     -0.599039
  S       1.162096      1.097326     -1.967201
  C      -2.132303      1.302817     -1.506086
  H      -1.630370      1.381691     -2.479607
  H      -3.211624      1.168153     -1.659761
  H      -1.955768      2.221466     -0.933456
  C       0.584990     -3.066219     -1.106525
  H       0.933763     -4.091016     -0.920231
  H      -0.505819     -3.063906     -1.231102
  H       1.056903     -2.676723     -2.016448
  C       0.780087      2.568951      1.613275
  H      -0.287046      2.417687      1.816994
  H       1.238022      3.098878      2.459580
  H       0.899888      3.166174      0.699908
  C       2.897581      1.633312     -1.796098
  H       3.553325      0.768844     -1.640605
  H       3.175309      2.138653     -2.731349
  H       3.005178      2.324110     -0.950877
21
Coordinates from ORCA-job Rubredoxin_zero_singlet_quintet E -3015.210633206673
  Fe      0.593989     -0.002788     -0.201446
  S       1.038083     -2.056931      0.343310
  S       1.633736      0.965281      1.442425
  S      -1.527941     -0.156648     -0.598683
  S       1.161988      1.096501     -1.967744
  C      -2.132623      1.303055     -1.505932
  H      -1.630310      1.382342     -2.479213
  H      -3.211839      1.167971     -1.659992
  H      -1.956728      2.221656     -0.933017
  C       0.585722     -3.065743     -1.106600
  H       0.932889     -4.090926     -0.919425
  H      -0.504917     -3.062083     -1.232622
  H       1.059301     -2.677177     -2.016060
  C       0.779795      2.569067      1.614064
  H      -0.287487      2.417362      1.816653
  H       1.236909      3.098012      2.461416
  H       0.900275      3.167440      0.701533
  C       2.897648      1.632444     -1.797027
  H       3.553117      0.767930     -1.640695
  H       3.175571      2.136884     -2.732695
  H       3.005188      2.323966     -0.952399
