9
Coordinates from ORCA-job Cobalt_INT2
  C   -0.72477000431941      1.76675046881171     -0.01447536956338
  H   -0.38725759359242      1.92569666089323      1.00445769832075
  H   -0.13213477215457      2.33904432342115     -0.74817925247504
  H   -1.80141393939817      1.88993237041399     -0.14157045776604
  Co  -0.40158199515680      0.06603092324652     -0.76640790513809
  O   -1.52621146465418     -1.09493149714545     -0.27922700920357
  H   -1.67316426660975     -1.45483015864304      0.60930471414305
  C   1.17661315301300     -0.19797697325359      0.11078632101746
  O   2.10482988287131     -0.37915311774453      0.70885726066486
