9
Coordinates from ORCA-job Cobalt_INT2 E -1611.412040411597
  C      -0.737636      1.757729     -0.005479
  H      -0.564960      1.925937      0.960406
  H      -0.109756      2.325293     -0.596459
  H      -1.697182      1.881066     -0.260250
  Co     -0.388508      0.051112     -0.654702
  O      -1.500952     -1.094932     -0.174154
  H      -1.683663     -1.381662      0.573703
  C       1.190694     -0.213653      0.070439
  O       2.126872     -0.390325      0.570043
9
Coordinates from ORCA-job Cobalt_INT2 E -1611.462987117934
  C      -0.729576      1.762237     -0.012393
  H      -0.549569      1.916817      1.010793
  H      -0.070314      2.344680     -0.612434
  H      -1.739544      1.883769     -0.284539
  Co     -0.377883      0.035136     -0.661262
  O      -1.548266     -1.099492     -0.210512
  H      -1.793949     -1.442045      0.620646
  C       1.235892     -0.186354      0.062495
  O       2.208119     -0.354184      0.570753
9
Coordinates from ORCA-job Cobalt_INT2 E -1611.467769053608
  C      -0.726724      1.756508     -0.013703
  H      -0.525622      1.895317      1.037538
  H      -0.055061      2.355465     -0.637953
  H      -1.772119      1.876860     -0.277065
  Co     -0.377610      0.032922     -0.689846
  O      -1.546761     -1.099808     -0.223703
  H      -1.804340     -1.432092      0.636929
  C       1.234795     -0.179037      0.062309
  O       2.208351     -0.345572      0.589040
9
Coordinates from ORCA-job Cobalt_INT2 E -1611.467452181993
  C      -0.722896      1.750531     -0.014963
  H      -0.491438      1.877559      1.042756
  H      -0.063651      2.359368     -0.661215
  H      -1.787710      1.868590     -0.251450
  Co     -0.379462      0.037670     -0.726178
  O      -1.533874     -1.096696     -0.237239
  H      -1.786619     -1.414822      0.647460
  C       1.218884     -0.176529      0.066885
  O       2.181675     -0.345107      0.617490
9
Coordinates from ORCA-job Cobalt_INT2 E -1611.465952836772
  C      -0.718986      1.745363     -0.016777
  H      -0.454393      1.862193      1.039144
  H      -0.080138      2.361785     -0.683731
  H      -1.796405      1.864133     -0.219355
  Co     -0.385235      0.046719     -0.767305
  O      -1.514240     -1.092738     -0.250240
  H      -1.744325     -1.396501      0.656565
  C       1.191438     -0.178706      0.073446
  O       2.137194     -0.351685      0.651800
9
Coordinates from ORCA-job Cobalt_INT2 E -1611.464286208763
  C      -0.717159      1.744518     -0.018927
  H      -0.428761      1.856325      1.029418
  H      -0.096682      2.362625     -0.698875
  H      -1.797241      1.869057     -0.193108
  Co     -0.394988      0.057713     -0.799513
  O      -1.494156     -1.089982     -0.258252
  H      -1.684158     -1.386218      0.661798
  C       1.159819     -0.187226      0.079831
  O       2.088235     -0.366250      0.681174
9
Coordinates from ORCA-job Cobalt_INT2 E -1611.463335613402
  C      -0.719107      1.750045     -0.020351
  H      -0.424497      1.866339      1.019144
  H      -0.106664      2.362457     -0.703434
  H      -1.793141      1.881563     -0.182930
  Co     -0.403876      0.065849     -0.807229
  O      -1.483729     -1.090555     -0.258563
  H      -1.634481     -1.390774      0.658971
  C       1.140277     -0.199833      0.084157
  O       2.060126     -0.384528      0.693782
9
Coordinates from ORCA-job Cobalt_INT2 E -1611.463449136970
  C      -0.721966      1.756346     -0.020355
  H      -0.431738      1.880611      1.016352
  H      -0.107128      2.363000     -0.702652
  H      -1.791889      1.888936     -0.186399
  Co     -0.405713      0.067639     -0.796225
  O      -1.486275     -1.093244     -0.256021
  H      -1.625625     -1.402293      0.653008
  C       1.141449     -0.206701      0.085384
  O       2.063793     -0.393730      0.690453
9
Coordinates from ORCA-job Cobalt_INT2 E -1611.463746783313
  C      -0.723518      1.760653     -0.020070
  H      -0.435178      1.890290      1.016731
  H      -0.105863      2.363835     -0.703764
  H      -1.793308      1.891798     -0.189265
  Co     -0.405686      0.068457     -0.787635
  O      -1.490144     -1.095238     -0.255425
  H      -1.626622     -1.411705      0.649395
  C       1.144995     -0.209620      0.086203
  O       2.070232     -0.397907      0.687377
9
Coordinates from ORCA-job Cobalt_INT2 E -1611.466126249324
  C      -0.739541      1.807660     -0.016213
  H      -0.472694      1.999315      1.020649
  H      -0.085411      2.366423     -0.714558
  H      -1.807976      1.920346     -0.222851
  Co     -0.405428      0.075637     -0.680879
  O      -1.540543     -1.117908     -0.247255
  H      -1.654081     -1.522012      0.602186
  C       1.189715     -0.235202      0.096029
  O       2.150868     -0.433696      0.646438
9
Coordinates from ORCA-job Cobalt_INT2 E -1611.464666139683
  C      -0.727476      1.774253     -0.018927
  H      -0.441522      1.920203      1.018062
  H      -0.102339      2.365239     -0.710053
  H      -1.798483      1.899943     -0.195323
  Co     -0.406177      0.072037     -0.762889
  O      -1.502797     -1.101056     -0.255673
  H      -1.629079     -1.443239      0.638573
  C       1.154894     -0.217205      0.089856
  O       2.087887     -0.409613      0.679920
9
Coordinates from ORCA-job Cobalt_INT2 E -1611.464395179335
  C      -0.725785      1.771596     -0.019162
  H      -0.433180      1.913854      1.016361
  H      -0.106466      2.364335     -0.713413
  H      -1.797944      1.897587     -0.187957
  Co     -0.407333      0.073327     -0.772986
  O      -1.498855     -1.098900     -0.258012
  H      -1.621245     -1.437334      0.640699
  C       1.148576     -0.215649      0.091025
  O       2.077141     -0.408251      0.686993
9
Coordinates from ORCA-job Cobalt_INT2 E -1611.464454691489
  C      -0.725460      1.772793     -0.018828
  H      -0.427786      1.916982      1.015076
  H      -0.109512      2.363433     -0.717974
  H      -1.798673      1.897027     -0.182946
  Co     -0.407893      0.075078     -0.774003
  O      -1.499153     -1.099210     -0.260304
  H      -1.618203     -1.439939      0.638903
  C       1.147142     -0.215990      0.093097
  O       2.074448     -0.409611      0.690524
9
Coordinates from ORCA-job Cobalt_INT2 E -1611.464980286150
  C      -0.724768      1.780654     -0.016674
  H      -0.405033      1.938409      1.008647
  H      -0.123533      2.358350     -0.739553
  H      -1.801928      1.895844     -0.161015
  Co     -0.410026      0.082950     -0.771895
  O      -1.504213     -1.101981     -0.270507
  H      -1.608393     -1.458145      0.626786
  C       1.144494     -0.218412      0.103582
  O       2.068309     -0.417106      0.704175
9
Coordinates from ORCA-job Cobalt_INT2 E -1611.465372800984
  C      -0.724526      1.784104     -0.015261
  H      -0.395015      1.950022      1.005454
  H      -0.130434      2.355213     -0.749449
  H      -1.803076      1.894879     -0.150897
  Co     -0.410183      0.085440     -0.768371
  O      -1.508301     -1.103657     -0.275181
  H      -1.609142     -1.467321      0.619308
  C       1.146069     -0.218768      0.108754
  O       2.069518     -0.419349      0.709188
9
Coordinates from ORCA-job Cobalt_INT2 E -1611.466226267622
  C      -0.723763      1.787851     -0.012251
  H      -0.377659      1.968806      0.999833
  H      -0.143012      2.348199     -0.765639
  H      -1.804194      1.891615     -0.132849
  Co     -0.408920      0.087023     -0.761203
  O      -1.517057     -1.106476     -0.283438
  H      -1.620108     -1.480693      0.604917
  C       1.152760     -0.216734      0.117698
  O       2.076862     -0.419028      0.716478
9
Coordinates from ORCA-job Cobalt_INT2 E -1611.467165983186
  C      -0.722495      1.787335     -0.009069
  H      -0.361654      1.981267      0.994866
  H      -0.154856      2.339890     -0.778450
  H      -1.804076      1.886469     -0.115818
  Co     -0.405788      0.084489     -0.755294
  O      -1.526342     -1.108243     -0.291156
  H      -1.642113     -1.487576      0.591303
  C       1.163232     -0.210882      0.125370
  O       2.089001     -0.412186      0.721793
9
Coordinates from ORCA-job Cobalt_INT2 E -1611.468243494054
  C      -0.720651      1.779876     -0.005978
  H      -0.347931      1.982067      0.991513
  H      -0.164688      2.330020     -0.785758
  H      -1.802499      1.878631     -0.100943
  Co     -0.399809      0.075411     -0.752176
  O      -1.536021     -1.107852     -0.297733
  H      -1.680171     -1.483624      0.579704
  C       1.179013     -0.199127      0.130708
  O       2.107665     -0.394839      0.724209
9
Coordinates from ORCA-job Cobalt_INT2 E -1611.468817978667
  C      -0.719642      1.766917     -0.005722
  H      -0.348186      1.962543      0.993694
  H      -0.163236      2.325234     -0.779005
  H      -1.800413      1.872586     -0.100952
  Co     -0.393665      0.062565     -0.755798
  O      -1.539240     -1.103701     -0.297232
  H      -1.714980     -1.465412      0.579982
  C       1.191543     -0.186870      0.128251
  O       2.122729     -0.373300      0.720328
9
Coordinates from ORCA-job Cobalt_INT2 E -1611.468472737992
  C      -0.720617      1.757353     -0.009112
  H      -0.364572      1.933680      1.000163
  H      -0.149722      2.328990     -0.760967
  H      -1.799349      1.873723     -0.117859
  Co     -0.391786      0.054707     -0.763951
  O      -1.533691     -1.097646     -0.289216
  H      -1.721588     -1.445424      0.593399
  C       1.192316     -0.182865      0.118880
  O       2.123918     -0.361955      0.712209
9
Coordinates from ORCA-job Cobalt_INT2 E -1611.467442715503
  C      -0.723023      1.757176     -0.013969
  H      -0.386823      1.913597      1.006051
  H      -0.132851      2.337783     -0.742817
  H      -1.799517      1.882251     -0.140615
  Co     -0.395535      0.056490     -0.771120
  O      -1.524079     -1.093024     -0.279155
  H      -1.696838     -1.437633      0.611078
  C       1.181886     -0.189146      0.108852
  O       2.111689     -0.366932      0.705242
9
Coordinates from ORCA-job Cobalt_INT2 E -1611.466550154483
  C      -0.725166      1.765037     -0.016963
  H      -0.398920      1.913848      1.007656
  H      -0.124078      2.344964     -0.737022
  H      -1.800765      1.891804     -0.153199
  Co     -0.401844      0.065171     -0.772600
  O      -1.517863     -1.092454     -0.273796
  H      -1.661333     -1.445892      0.620142
  C       1.168810     -0.199931      0.105070
  O       2.096070     -0.381984      0.704257
9
Coordinates from ORCA-job Cobalt_INT2 E -1611.466832832679
  C      -0.725067      1.769745     -0.015529
  H      -0.391147      1.927050      1.005040
  H      -0.129740      2.343086     -0.746033
  H      -1.801783      1.891947     -0.145596
  Co     -0.402961      0.068921     -0.768189
  O      -1.521301     -1.095113     -0.277389
  H      -1.658279     -1.456433      0.613404
  C       1.169012     -0.201871      0.109588
  O       2.096176     -0.386769      0.708248
9
Coordinates from ORCA-job Cobalt_INT2 E -1611.467561817876
  C      -0.723993      1.770066     -0.012728
  H      -0.378111      1.938640      1.001600
  H      -0.139204      2.337153     -0.757068
  H      -1.801956      1.887772     -0.132316
  Co     -0.400998      0.067924     -0.763132
  O      -1.528261     -1.097577     -0.283427
  H      -1.673883     -1.462429      0.602492
  C       1.176443     -0.198066      0.115664
  O       2.104873     -0.382919      0.712460
9
Coordinates from ORCA-job Cobalt_INT2 E -1611.467561206485
  C      -0.723976      1.767663     -0.013098
  H      -0.380215      1.933236      1.002528
  H      -0.137488      2.337150     -0.754117
  H      -1.801538      1.887313     -0.134390
  Co     -0.400251      0.065854     -0.764536
  O      -1.527845     -1.096477     -0.282410
  H      -1.677912     -1.458100      0.604275
  C       1.177732     -0.196505      0.114209
  O       2.106403     -0.379572      0.711085
9
Coordinates from ORCA-job Cobalt_INT2 E -1611.467262949634
  C      -0.724573      1.764946     -0.014804
  H      -0.388641      1.921810      1.005098
  H      -0.131064      2.339529     -0.745842
  H      -1.801038      1.889124     -0.142885
  Co     -0.400553      0.064141     -0.768041
  O      -1.524767     -1.094051     -0.278485
  H      -1.675462     -1.451049      0.611028
  C       1.176302     -0.196598      0.109802
  O       2.104705     -0.377289      0.707673
9
Coordinates from ORCA-job Cobalt_INT2 E -1611.467298104669
  C      -0.724590      1.766097     -0.014558
  H      -0.387335      1.924595      1.004590
  H      -0.132060      2.339308     -0.747553
  H      -1.801258      1.889341     -0.141613
  Co     -0.400952      0.065161     -0.767166
  O      -1.525333     -1.094634     -0.279109
  H      -1.674020     -1.453367      0.609854
  C       1.176072     -0.197280      0.110628
  O       2.104385     -0.378658      0.708474
9
Coordinates from ORCA-job Cobalt_INT2 E -1611.467343950804
  C      -0.724642      1.766749     -0.014390
  H      -0.386608      1.926183      1.004302
  H      -0.132603      2.339020     -0.748587
  H      -1.801394      1.889561     -0.140909
  Co     -0.401290      0.065819     -0.766476
  O      -1.525990     -1.095002     -0.279479
  H      -1.673513     -1.454833      0.609032
  C       1.176336     -0.197700      0.111087
  O       2.104613     -0.379234      0.708968
9
Coordinates from ORCA-job Cobalt_INT2 E -1611.467335477104
  C      -0.724770      1.766750     -0.014475
  H      -0.387258      1.925697      1.004458
  H      -0.132135      2.339044     -0.748179
  H      -1.801414      1.889932     -0.141570
  Co     -0.401582      0.066031     -0.766408
  O      -1.526211     -1.094931     -0.279227
  H      -1.673164     -1.454830      0.609305
  C       1.176613     -0.197977      0.110786
  O       2.104830     -0.379153      0.708857
