28
lambda = 0.11111111
C     -3.203185523697     0.311213544887    -0.087709408983
C     -1.159667634835     1.320571779830    -0.505598660597
C     -1.654858452094     2.572777259154    -0.196080773319
C     -2.987459268505     2.686610801219     0.184462184912
C     -3.764036283016     1.544741125125     0.239899355244
C     -3.941105421639    -0.950548852232    -0.070069513318
C     -3.823802613007    -3.232396973356    -0.450231617379
C     -5.150919487735    -3.411533752313    -0.106829817406
C     -5.896137858764    -2.300887776566     0.270191457897
C     -5.283407573237    -1.062191470969     0.290132873698
H     -0.132934041987     1.196584399951    -0.813859995602
H     -1.008364680891     3.436362506893    -0.259776932108
H     -3.412364650703     3.650273454091     0.428963691068
H     -4.802130371609     1.609247698910     0.526728976244
H     -3.216098713310    -4.069407800638    -0.757756137058
H     -5.585960425032    -4.399934229663    -0.141172724933
H     -6.937967138285    -2.400561136129     0.541985698846
H     -5.842632654890    -0.185816842368     0.578041125593
N     -3.225956266842    -2.037164143083    -0.437340672320
N     -1.905723240012     0.211203033845    -0.458612770431
Mn    -1.296406478847    -1.660263430864    -1.061134483423
C      0.310223011829    -1.110954617442    -1.730763812375
C     -0.981869899351    -3.333790410043    -1.724834325558
C     -0.617425502657    -2.066355940385     0.568663782581
Br    -2.333839234201    -1.106497425228    -3.304625431911
O     -0.193497104502    -2.319052499145     1.598890008143
O      1.313121701252    -0.762286531586    -2.153969431998
O     -0.793158573429    -4.375464721894    -2.148710675507
