28
lambda = 0.44444444
C     -3.205502652993     0.303469514715    -0.085082380857
C     -1.161568534168     1.328759369051    -0.551515559719
C     -1.639823798888     2.571065369518    -0.204681825048
C     -2.968074193443     2.678097902086     0.224200394036
C     -3.744219458623     1.543454989802     0.281726120242
C     -3.937514434364    -0.940242752876    -0.069423688061
C     -3.844035268702    -3.224581906874    -0.509323274471
C     -5.158110032269    -3.409621374946    -0.135714578978
C     -5.888408330477    -2.299912998769     0.295424421162
C     -5.275409520995    -1.068084260618     0.328364313411
H     -0.145492584919     1.212048759013    -0.894264501049
H     -0.994757563355     3.434866867010    -0.273477621586
H     -3.380182524972     3.637647430124     0.501328996045
H     -4.771932917593     1.605949810665     0.602644732035
H     -3.250759174222    -4.055503650620    -0.857077532902
H     -5.600148375440    -4.393670179699    -0.186045219008
H     -6.921152519348    -2.405119945969     0.596363173666
H     -5.822903567810    -0.199060732357     0.655518996376
N     -3.236531773090    -2.032437874192    -0.482278729178
N     -1.906414359060     0.213203503215    -0.501567176450
Mn    -1.316220735164    -1.645655572880    -1.096369290333
C      0.308593445660    -1.099065363037    -1.762253636590
C     -0.921376364786    -3.350392955253    -1.696855439008
C     -0.725073580828    -2.011780854629     0.606595913077
Br    -2.275104442555    -1.261464334479    -3.364913412771
O     -0.387479306048    -2.227424363970     1.664259715465
O      1.311982725110    -0.762456886908    -2.187311000261
O     -0.669944536657    -4.387610457123    -2.079389939245
