28
lambda = 0.77777778
C     -3.207820889987     0.295715466963    -0.082445816826
C     -1.163471153450     1.336937020084    -0.597443895648
C     -1.624791950678     2.569343311721    -0.213291370500
C     -2.948691117467     2.669576017696     0.263945763105
C     -3.724403517964     1.542161874497     0.323573783242
C     -3.933927140116    -0.929942272821    -0.068771364088
C     -3.864282055355    -3.216773195735    -0.568418884889
C     -5.165316438862    -3.407707903698    -0.164605583326
C     -5.880692779820    -2.298931915195     0.320652499120
C     -5.267421674203    -1.073973915423     0.366598638499
H     -0.158051720249     1.227505351115    -0.974686577518
H     -0.981154800648     3.433361577389    -0.287197223753
H     -3.348004933033     3.625013223775     0.573706493783
H     -4.741733090433     1.602648881793     0.678600539684
H     -3.285437614901    -4.041613102496    -0.956400639044
H     -5.614355842856    -4.387404167368    -0.230926167521
H     -6.904355497898    -2.409663946888     0.650733223594
H     -5.803185498057    -0.212299806031     0.733001348293
N     -3.247116401356    -2.027720268752    -0.527214262146
N     -1.907108674934     0.215194578814    -0.544524110378
Mn    -1.336045789685    -1.631056624518    -1.131597876788
C      0.306967838390    -1.087205832840    -1.793725545771
C     -0.860871569787    -3.366998291257    -1.668901905314
C     -0.832718197326    -1.957174771427     0.644544683091
Br    -2.216353354293    -1.416414307984    -3.425202517306
O     -0.581415338073    -2.135665855645     1.729659761641
O      1.310861713014    -0.762698654061    -2.220637119141
O     -0.546666889973    -4.399735421710    -2.010143904094
