28
lambda = 1.00000000
C     -3.209366012083     0.290549440989    -0.080691286107
C     -1.164738992988     1.342392100168    -0.628058973998
C     -1.614769783539     2.568198662577    -0.219028236227
C     -2.935768400454     2.663897756522     0.290440289169
C     -3.711192596280     1.541302124288     0.351465259242
C     -3.931534379608    -0.923073413017    -0.068338647678
C     -3.877775202805    -3.211565269861    -0.607814640726
C     -5.170115422571    -3.406432620826    -0.183864171966
C     -5.875544420172    -2.298279961405     0.337472846194
C     -5.262093041192    -1.077901396908     0.392087226766
H     -0.166424279669     1.237812334837    -1.028295438156
H     -0.972084840567     3.432361267554    -0.296337320968
H     -3.326551693810     3.616593147003     0.621954094688
H     -4.721600663374     1.600449276087     0.729224394164
H     -3.308550582098    -4.032348203116    -1.022615473040
H     -5.623820982130    -4.383227479936    -0.260843981717
H     -6.893151617769    -2.412698217141     0.686982398510
H     -5.790036445779    -0.221127460585     0.784654755859
N     -3.254169779528    -2.024572310642    -0.557172125421
N     -1.907570486574     0.216525093804    -0.573161223694
Mn    -1.349258893298    -1.621321022402    -1.155085674576
C      0.305882780577    -1.079289571306    -1.814712790236
C     -0.820538793266    -3.378067584995    -1.650257765232
C     -0.904482428882    -1.920781048441     0.669838316594
Br    -2.177191394324    -1.519719935569    -3.465394879104
O     -0.710721415930    -2.074536974478     1.773249679473
O      1.310108383601    -0.762836028219    -2.242859681522
O     -0.464502995488    -4.407825654982    -1.963954980290
