28
lambda = 0.66666667
C     -3.207048074785     0.298303722033    -0.083328148734
C     -1.162842431852     1.334217447098    -0.582149156728
C     -1.629804272643     2.569921602548    -0.210427633139
C     -2.955148836670     2.672418248341     0.250703514571
C     -3.731005213191     1.542593724843     0.309629445943
C     -3.935122199099    -0.933373495594    -0.068991383144
C     -3.857534258023    -3.219370740845    -0.548734243688
C     -5.162911880040    -3.408343955351    -0.154981281517
C     -5.883258707178    -2.299261170648     0.312249855134
C     -5.270078831317    -1.072012556559     0.353861040454
H     -0.153874526860     1.222360907008    -0.947902326037
H     -0.985692197514     3.433868538635    -0.282630481700
H     -3.358722719098     3.629224354336     0.549596130036
H     -4.751793100208     1.603747615647     0.653294285564
H     -3.273881453483    -4.046234004700    -0.923316570455
H     -5.609618931108    -4.389489925792    -0.215974584455
H     -6.909944886002    -2.408155893270     0.632624794331
H     -5.809750134562    -0.207891290836     0.707190142749
N     -3.243588582559    -2.029287476511    -0.512247015055
N     -1.906880543649     0.214535364338    -0.530216964083
Mn    -1.329433436493    -1.635918985178    -1.119858785703
C      0.307512095805    -1.091151722722    -1.783235385303
C     -0.881035498117    -3.361465172764    -1.678197412591
C     -0.796851119862    -1.975378388567     0.631893187227
Br    -2.235923133994    -1.364784584826    -3.405117309472
O     -0.516808520307    -2.166288886831     1.707855934768
O      1.311236394693    -0.762603561099    -2.209526271042
O     -0.587759381882    -4.395702662733    -2.033181407931
