21
lambda = 0.33333333
Fe     0.477807033949     0.036503344837    -0.007705631765
S      1.591805599740    -1.909723740519     0.166655914898
S      1.379646606336     1.073990770632     1.754286662091
S     -1.737033271576     0.133708160135    -0.222352050214
S      1.082768722448     1.210868405166    -1.818591639416
C     -2.355350737535     1.346331870997    -1.469105578994
H     -1.698226864887     1.340041989780    -2.351193372710
H     -3.384058092981     1.089783425685    -1.779244737297
H     -2.363279158801     2.369759534398    -1.060827957872
C      0.954781466995    -2.846019803743    -1.283644200191
H      1.183167297340    -3.921667561973    -1.179387190789
H     -0.134581461402    -2.716201452734    -1.369017816600
H      1.412350984350    -2.478602182115    -2.215290912278
C      0.650961622517     2.742920265289     1.723241696279
H     -0.430633999270     2.704999136000     1.880658521707
H      1.117242142371     3.356199379469     2.503526205239
H      0.818036202491     3.201424433921     0.753390027587
C      2.902415406074     1.115024283149    -1.846778342543
H      3.232275114402     0.075579625414    -1.964273516389
H      3.298253191052     1.727975605465    -2.674494577076
H      3.304017236387     1.484719750743    -0.904001413667
