21
lambda = 0.44444444
Fe     0.481859966745     0.033994333837    -0.005858965379
S      1.564815824543    -1.944733490903     0.150013708417
S      1.360388157097     1.098773708096     1.773831158261
S     -1.754828440949     0.070511397295    -0.222369723845
S      1.114119092787     1.208858278995    -1.830789724271
C     -2.357161649157     1.303744459073    -1.452390377691
H     -1.694864259817     1.310593585921    -2.330098331020
H     -3.384315274836     1.056970553571    -1.774475598949
H     -2.365432065360     2.320266213906    -1.028493400979
C      0.913679956300    -2.858232216395    -1.306796337944
H      1.140809125821    -3.935255953785    -1.221291941023
H     -0.176008496672    -2.725126010612    -1.380139403288
H      1.363475774142    -2.476936412723    -2.236183765826
C      0.667289028219     2.776927063270     1.685663858048
H     -0.412988892942     2.770012596519     1.851377278668
H      1.151040008583     3.407995674085     2.438431214176
H      0.835506656570     3.195235901907     0.699687489866
C      2.931738142364     1.141533062700    -1.802059918758
H      3.279222479055     0.106678558358    -1.904584637892
H      3.345669222764     1.756876456590    -2.618219548720
H      3.298350684742     1.518927480292    -0.849402941851
