21
Best interpolated MECP guess: index=1, lambda=0.00000000
Fe     0.465648235561     0.044030377837    -0.013245630921
S      1.672774925333    -1.804694489368     0.216582534343
S      1.437421954054     0.999641958242     1.695653173580
S     -1.683647763457     0.323298448654    -0.222299029322
S      0.988717611431     1.216898783679    -1.781997384852
C     -2.349918002669     1.474094106771    -1.519251182904
H     -1.708314680099     1.428387201358    -2.414478497780
H     -3.383286547416     1.188222042025    -1.793552152339
H     -2.356820439124     2.518239495873    -1.157831628552
C      1.078085999079    -2.809382565789    -1.214187786932
H      1.310241811897    -3.880902386535    -1.053672940088
H     -0.010300355592    -2.689427779100    -1.335653056537
H      1.558976614976    -2.483599490290    -2.152612351634
C      0.601979405410     2.640899871347     1.835975210973
H     -0.483569318256     2.509958754443     1.968502250824
H      1.015848543736     3.200810495622     2.698811178428
H      0.765624840254     3.219990029964     0.914497640749
C      2.814447197203     1.035497944497    -1.980933613898
H      3.091433020443    -0.017717173420    -2.143340151881
H      3.156005095916     1.641273052090    -2.843319662143
H      3.321016891321     1.382096562097    -1.067796829114
