21
lambda = 0.77777778
Fe     0.494018765132     0.026467300838    -0.000318966223
S      1.483846498950    -2.049762742054     0.100087088972
S      1.302612809379     1.173122520486     1.832464646772
S     -1.808213949067    -0.119078891224    -0.222422744737
S      1.208170203805     1.202827900482    -1.867383978835
C     -2.362594384023     1.175982223299    -1.402244773781
H     -1.684776444605     1.222248374343    -2.266813205950
H     -3.385086820401     0.958531937231    -1.760168183907
H     -2.371890785036     2.171786252431    -0.931489730299
C      0.790375424216    -2.894869454349    -1.376252751204
H      1.013734611264    -3.976021129223    -1.347006191724
H     -0.300289602483    -2.751899684246    -1.413504163351
H      1.216850143516    -2.471939104548    -2.298862326470
C      0.716271245326     2.878947457212     1.572930343354
H     -0.360053573956     2.965052978077     1.763533549552
H      1.252433607218     3.563384557932     2.243146240987
H      0.887918018808     3.176670305864     0.538579876704
C      3.019706351235     1.221059401352    -1.667904647402
H      3.420064573015     0.199975357192    -1.725518002400
H      3.487917317901     1.843579009965    -2.449394463653
H      3.281351029808     1.621550668938    -0.685607526404
