28
Coordinates from ORCA-job Mn_by
  C   -3.16958158939613      0.31956468105691     -0.09004362165021
  C   -1.15425083970040      1.33832363137530     -0.60603386826715
  C   -1.63461331423569      2.58467938963772     -0.24883179646419
  C   -2.94298643143426      2.68846153609759      0.20845856791960
  C   -3.71517777586799      1.54301833653729      0.28940960326074
  C   -3.90171100299899     -0.94926892671085     -0.05903927624880
  C   -3.78757553176412     -3.22411586590090     -0.48857873422754
  C   -5.09675828332384     -3.41740719668992     -0.09224895732430
  C   -5.83215648110197     -2.31711035815520      0.33497806342412
  C   -5.22571273962784     -1.07455481713836      0.35276544757185
  H   -0.14589051299033      1.21536700395264     -0.97273082681449
  H   -0.99588325084615      3.45192381826970     -0.33698781092672
  H   -3.35455130647691      3.64731689502968      0.49348691372161
  H   -4.73610114813325      1.59970548247635      0.63559466807880
  H   -3.18542595402948     -4.04912158461355     -0.83914534822147
  H   -5.52831546436278     -4.40744012085211     -0.12477342694550
  H   -6.86213804707466     -2.42798056170551      0.64619947110270
  H   -5.77850768910412     -0.20639711297628      0.67854484533652
  N   -3.19553804158073     -2.02296925615894     -0.47944667252367
  N   -1.89577626522634      0.22762378465567     -0.53236258863095
  Mn  -1.35474430095783     -1.61728108980219     -1.26830553125780
  C   0.36094969604240     -1.18937057490763     -1.89987475083250
  C   -0.87485323027916     -3.31670776647217     -1.83025891410200
  C   -0.64095029655545     -1.92852467918977      1.12377538356214
  Br  -2.51931677534459     -0.94340465614469     -3.44416587453763
  O   -1.24672222764710     -2.48604609492991      1.90450575486934
  O   1.39912047529533     -0.95310554001105     -2.31372525828384
  O   -0.51239605127735     -4.33070130672970     -2.22228349158761
