21
Coordinates from ORCA-job Qu_sex_nagative_1_sextet_min E -3015.194494014698
  Fe      0.605036      0.063883     -0.216844
  S       1.173998     -2.065766      0.206381
  S       1.807018      0.901254      1.542614
  S      -1.505391     -0.338044     -0.802687
  S       1.024275      1.635844     -1.762702
  C      -2.181416      0.901271     -1.939798
  H      -1.485234      1.133361     -2.658451
  H      -3.071094      0.576022     -2.440543
  H      -2.420118      1.774124     -1.448695
  C       0.279116     -3.098633     -0.953258
  H       0.436371     -4.106648     -0.695699
  H      -0.797787     -2.896649     -0.957110
  H       0.630820     -2.945209     -1.928884
  C       1.238917      2.590258      1.729808
  H       0.239438      2.574885      2.128304
  H       1.880754      3.144055      2.394518
  H       1.230984      3.110903      0.789753
  C       2.779990      1.993962     -1.611803
  H       3.253224      1.400832     -2.107028
  H       2.980404      2.835320     -1.921922
  H       3.203059      1.952588     -0.710104
21
Coordinates from ORCA-job Qu_sex_nagative_1_sextet_min E -3015.260659754995
  Fe      0.595980      0.061498     -0.212601
  S       1.173613     -2.074078      0.206329
  S       1.780310      0.903619      1.561488
  S      -1.528201     -0.323409     -0.787580
  S       1.037144      1.622151     -1.775376
  C      -2.199941      0.925258     -1.921966
  H      -1.485085      1.157021     -2.668703
  H      -3.105554      0.592048     -2.416557
  H      -2.435897      1.824909     -1.411509
  C       0.294894     -3.128311     -0.960258
  H       0.464142     -4.153726     -0.691620
  H      -0.785154     -2.933455     -0.967798
  H       0.657010     -2.971844     -1.955467
  C       1.212698      2.603184      1.744094
  H       0.200277      2.598270      2.136302
  H       1.857300      3.156737      2.423097
  H       1.216126      3.125734      0.792016
  C       2.799802      1.983241     -1.630780
  H       3.322316      1.317548     -2.171489
  H       3.011816      2.905999     -1.982227
  H       3.218769      1.945220     -0.673544
21
Coordinates from ORCA-job Qu_sex_nagative_1_sextet_min E -3015.282365833476
  Fe      0.572027      0.046466     -0.204226
  S       1.158348     -2.097768      0.224089
  S       1.708492      0.919285      1.595119
  S      -1.578927     -0.294745     -0.758851
  S       1.079265      1.560275     -1.813437
  C      -2.245378      1.000628     -1.851214
  H      -1.520978      1.246637     -2.628647
  H      -3.174459      0.665662     -2.332416
  H      -2.467627      1.912747     -1.294102
  C       0.362409     -3.177265     -0.999716
  H       0.532257     -4.221575     -0.713353
  H      -0.718829     -2.987544     -1.062461
  H       0.786177     -3.013816     -1.995165
  C       1.152323      2.643228      1.729747
  H       0.120098      2.673810      2.100551
  H       1.796230      3.200944      2.425143
  H       1.186206      3.143511      0.751537
  C       2.850923      1.923242     -1.656039
  H       3.414337      1.196153     -2.184360
  H       3.073167      2.882339     -2.064074
  H       3.216303      1.915402     -0.632276
21
Coordinates from ORCA-job Qu_sex_nagative_1_sextet_min E -3015.288652632782
  Fe      0.549270      0.013692     -0.206448
  S       1.134340     -2.136623      0.250486
  S       1.620504      0.946607      1.610653
  S      -1.627005     -0.277941     -0.744613
  S       1.142533      1.445911     -1.879850
  C      -2.291531      1.106155     -1.730020
  H      -1.572601      1.404125     -2.510269
  H      -3.233053      0.794348     -2.210086
  H      -2.498701      1.984159     -1.096107
  C       0.455481     -3.217395     -1.053069
  H       0.590359     -4.269322     -0.751022
  H      -0.613249     -3.012073     -1.211680
  H       0.977428     -3.055451     -2.009796
  C       1.064474      2.684495      1.666482
  H       0.021913      2.744981      2.013097
  H       1.699083      3.259361      2.360493
  H       1.123142      3.139503      0.664272
  C       2.909521      1.835345     -1.664726
  H       3.527329      1.056405     -2.124769
  H       3.142788      2.797017     -2.141682
  H       3.180340      1.894318     -0.595494
21
Coordinates from ORCA-job Qu_sex_nagative_1_sextet_min E -3015.291407640186
  Fe      0.536128     -0.016836     -0.209191
  S       1.112313     -2.171865      0.276580
  S       1.544724      0.991136      1.609020
  S      -1.662489     -0.255881     -0.728444
  S       1.207028      1.314659     -1.950911
  C      -2.312083      1.217657     -1.591288
  H      -1.598689      1.567232     -2.357929
  H      -3.263916      0.948117     -2.076103
  H      -2.496840      2.045082     -0.883437
  C       0.553027     -3.232115     -1.104193
  H       0.645375     -4.289229     -0.803158
  H      -0.493179     -3.007042     -1.356268
  H       1.168369     -3.065660     -2.004094
  C       0.942321      2.718569      1.601403
  H      -0.104128      2.771023      1.938520
  H       1.559527      3.325650      2.282823
  H       0.998908      3.134741      0.582807
  C       2.967436      1.722777     -1.687847
  H       3.618379      0.907787     -2.074066
  H       3.217046      2.665670     -2.225080
  H       3.163109      1.846141     -0.603295
21
Coordinates from ORCA-job Qu_sex_nagative_1_sextet_min E -3015.293931877034
  Fe      0.528544     -0.058752     -0.194695
  S       1.105620     -2.222498      0.290557
  S       1.466592      1.046639      1.608779
  S      -1.699563     -0.225525     -0.669771
  S       1.267191      1.144063     -2.017966
  C      -2.294666      1.327077     -1.433485
  H      -1.576191      1.696262     -2.184345
  H      -3.259839      1.117223     -1.919301
  H      -2.439991      2.112643     -0.672471
  C       0.643981     -3.230120     -1.167805
  H       0.713304     -4.296466     -0.900233
  H      -0.383251     -2.991004     -1.475720
  H       1.320716     -3.032057     -2.014285
  C       0.801699      2.751023      1.514827
  H      -0.251173      2.784875      1.832927
  H       1.388417      3.401987      2.180661
  H       0.864575      3.119420      0.479823
  C       3.010056      1.603537     -1.702021
  H       3.700465      0.766959     -1.988936
  H       3.270238      2.508841     -2.310285
  H       3.125641      1.813487     -0.620402
21
Coordinates from ORCA-job Qu_sex_nagative_1_sextet_min E -3015.296542922373
  Fe      0.522812     -0.094395     -0.144874
  S       1.129665     -2.267873      0.296326
  S       1.365557      1.137113      1.625155
  S      -1.738086     -0.178473     -0.550249
  S       1.308579      0.952491     -2.060388
  C      -2.237422      1.441941     -1.244662
  H      -1.503826      1.794337     -1.984069
  H      -3.217463      1.311348     -1.725985
  H      -2.325582      2.198637     -0.450644
  C       0.756666     -3.176057     -1.252339
  H       0.827516     -4.255576     -1.055404
  H      -0.258937     -2.930333     -1.588849
  H       1.471111     -2.909842     -2.044078
  C       0.599327      2.789472      1.420887
  H      -0.459828      2.776544      1.716234
  H       1.133331      3.505829      2.061493
  H       0.667933      3.101287      0.369643
  C       3.051815      1.416653     -1.733683
  H       3.740764      0.554296     -1.936778
  H       3.335491      2.263954     -2.408520
  H       3.132942      1.706263     -0.673367
21
Coordinates from ORCA-job Qu_sex_nagative_1_sextet_min E -3015.298240459179
  Fe      0.520742     -0.138210     -0.100185
  S       1.137077     -2.319720      0.301635
  S       1.307354      1.202745      1.611728
  S      -1.762370     -0.132887     -0.435710
  S       1.330793      0.749102     -2.094244
  C      -2.152046      1.533704     -1.092182
  H      -1.409462      1.838754     -1.839510
  H      -3.148843      1.493180     -1.553562
  H      -2.163242      2.277331     -0.284645
  C       0.833878     -3.124043     -1.317302
  H       0.915015     -4.212516     -1.191121
  H      -0.173151     -2.874085     -1.674440
  H       1.570724     -2.790548     -2.058578
  C       0.446524      2.792690      1.319540
  H      -0.609134      2.729699      1.618161
  H       0.937715      3.571881      1.919133
  H       0.500732      3.054381      0.254750
  C       3.045663      1.291794     -1.736375
  H       3.753773      0.439174     -1.813412
  H       3.341902      2.058590     -2.479507
  H       3.078719      1.696599     -0.718323
21
Coordinates from ORCA-job Qu_sex_nagative_1_sextet_min E -3015.298854879292
  Fe      0.500295     -0.131756     -0.068991
  S       1.065200     -2.323180      0.336780
  S       1.360715      1.223638      1.590827
  S      -1.789179     -0.062680     -0.343542
  S       1.285747      0.670919     -2.105673
  C      -2.125612      1.562074     -1.120483
  H      -1.373123      1.783418     -1.887433
  H      -3.123333      1.528014     -1.581250
  H      -2.110354      2.363567     -0.371010
  C       0.885808     -3.077296     -1.322448
  H       0.989184     -4.167665     -1.228336
  H      -0.102008     -2.842168     -1.739085
  H       1.657365     -2.696053     -2.003026
  C       0.422838      2.780301      1.377683
  H      -0.604459      2.670488      1.751276
  H       0.923952      3.575579      1.948006
  H       0.389530      3.058290      0.315909
  C       3.001138      1.223544     -1.774961
  H       3.696844      0.370613     -1.809156
  H       3.300497      1.946310     -2.548101
  H       3.051320      1.681656     -0.781137
21
Coordinates from ORCA-job Qu_sex_nagative_1_sextet_min E -3015.299190943544
  Fe      0.528209     -0.121465     -0.105371
  S       1.052027     -2.307157      0.352211
  S       1.423047      1.246987      1.518796
  S      -1.756734     -0.039333     -0.383409
  S       1.324036      0.605825     -2.159714
  C      -2.095467      1.599505     -1.126234
  H      -1.317997      1.853111     -1.859913
  H      -3.075224      1.568705     -1.626383
  H      -2.121463      2.382130     -0.355299
  C       0.864875     -3.096530     -1.287925
  H       1.025849     -4.180216     -1.181815
  H      -0.143198     -2.918468     -1.685017
  H       1.595322     -2.684471     -1.996865
  C       0.386354      2.749551      1.414495
  H      -0.621221      2.550473      1.805437
  H       0.849224      3.547142      2.014902
  H       0.304706      3.089016      0.372704
  C       3.010579      1.228986     -1.818807
  H       3.723764      0.400340     -1.785197
  H       3.310155      1.914398     -2.618236
  H       3.035524      1.749086     -0.852511
21
Coordinates from ORCA-job Qu_sex_nagative_1_sextet_min E -3015.299492244976
  Fe      0.557508     -0.074991     -0.098536
  S       1.072770     -2.257513      0.363877
  S       1.487362      1.299448      1.494808
  S      -1.730505      0.010278     -0.331903
  S       1.323792      0.595508     -2.179277
  C      -2.070874      1.584901     -1.200255
  H      -1.287922      1.782634     -1.947725
  H      -3.047297      1.514968     -1.704186
  H      -2.104665      2.426454     -0.491875
  C       0.839844     -3.058689     -1.264316
  H       1.074683     -4.131035     -1.172925
  H      -0.198757     -2.945181     -1.603258
  H       1.497705     -2.598210     -2.014569
  C       0.355203      2.734777      1.528437
  H      -0.628234      2.437984      1.919495
  H       0.778149      3.513982      2.181192
  H       0.225829      3.153792      0.520737
  C       3.026494      1.195462     -1.884971
  H       3.721370      0.353657     -1.832363
  H       3.327741      1.849750     -2.710156
  H       3.082168      1.749638     -0.936382
21
Coordinates from ORCA-job Qu_sex_nagative_1_sextet_min E -3015.299771818792
  Fe      0.594787     -0.046076     -0.111605
  S       1.108147     -2.222742      0.365611
  S       1.521864      1.345777      1.462288
  S      -1.694470      0.037250     -0.323212
  S       1.358707      0.554615     -2.211847
  C      -2.036566      1.589792     -1.229123
  H      -1.238617      1.784554     -1.962284
  H      -2.999730      1.496329     -1.754109
  H      -2.099086      2.444770     -0.537455
  C       0.801256     -3.050259     -1.237208
  H       1.115353     -4.103434     -1.165080
  H      -0.267266     -3.010462     -1.490826
  H       1.361668     -2.548317     -2.038728
  C       0.314859      2.713780      1.593555
  H      -0.658462      2.333903      1.933730
  H       0.684284      3.454727      2.319358
  H       0.179645      3.213985      0.624403
  C       3.052392      1.189817     -1.940982
  H       3.756516      0.357384     -1.820020
  H       3.358060      1.792124     -2.808894
  H       3.089026      1.810099     -1.031722
21
Coordinates from ORCA-job Qu_sex_nagative_1_sextet_min E -3015.299922994451
  Fe      0.607399     -0.013310     -0.132367
  S       1.130574     -2.180145      0.362260
  S       1.515318      1.388213      1.437227
  S      -1.681050      0.047878     -0.333078
  S       1.375750      0.536269     -2.240902
  C      -2.040315      1.612200     -1.211375
  H      -1.230897      1.844022     -1.919375
  H      -2.987384      1.507364     -1.761786
  H      -2.141138      2.448272     -0.502018
  C       0.811410     -3.032956     -1.224194
  H       1.195523     -4.062482     -1.165345
  H      -0.267942     -3.063414     -1.430828
  H       1.303416     -2.496616     -2.047676
  C       0.269524      2.714274      1.624290
  H      -0.715792      2.283585      1.846638
  H       0.569067      3.378717      2.449097
  H       0.190600      3.314234      0.706824
  C       3.085396      1.135918     -1.992194
  H       3.767670      0.288896     -1.823555
  H       3.412602      1.686943     -2.889684
  H       3.132635      1.799753     -1.116111
21
Coordinates from ORCA-job Qu_sex_nagative_1_sextet_min E -3015.299972799691
  Fe      0.622054      0.001598     -0.150962
  S       1.133458     -2.160648      0.371404
  S       1.542880      1.409673      1.402583
  S      -1.665718      0.074855     -0.337248
  S       1.388443      0.511720     -2.268108
  C      -2.015321      1.621421     -1.251463
  H      -1.210031      1.827618     -1.970957
  H      -2.967403      1.512427     -1.792078
  H      -2.101895      2.474989     -0.562264
  C       0.791105     -3.042135     -1.194171
  H       1.173502     -4.071191     -1.121356
  H      -0.291110     -3.073289     -1.384418
  H       1.274484     -2.521993     -2.032788
  C       0.260597      2.684808      1.675558
  H      -0.708069      2.212555      1.886430
  H       0.552610      3.312868      2.530698
  H       0.151593      3.328762      0.791126
  C       3.081254      1.159370     -2.024678
  H       3.780737      0.335863     -1.810076
  H       3.408618      1.676766     -2.942099
  H       3.100579      1.861580     -1.179283
21
Coordinates from ORCA-job Qu_sex_nagative_1_sextet_min E -3015.300017957282
  Fe      0.619125      0.009328     -0.166430
  S       1.133416     -2.148574      0.372256
  S       1.539534      1.417921      1.385895
  S      -1.667816      0.083030     -0.344662
  S       1.384853      0.512614     -2.284112
  C      -2.013450      1.634982     -1.252808
  H      -1.218598      1.832321     -1.985215
  H      -2.975487      1.536944     -1.777551
  H      -2.077939      2.487979     -0.561684
  C       0.802552     -3.047252     -1.186000
  H       1.163593     -4.081966     -1.089998
  H      -0.276298     -3.060348     -1.394860
  H       1.313660     -2.550372     -2.021887
  C       0.249308      2.678196      1.688857
  H      -0.716717      2.195027      1.886667
  H       0.537881      3.285480      2.559702
  H       0.139622      3.341317      0.818614
  C       3.079626      1.155046     -2.038222
  H       3.775110      0.331865     -1.812532
  H       3.413719      1.658950     -2.958951
  H       3.096673      1.865128     -1.201227
21
Coordinates from ORCA-job Qu_sex_nagative_1_sextet_min E -3015.300047816716
  Fe      0.620423      0.011741     -0.180585
  S       1.147903     -2.141832      0.365082
  S       1.531674      1.418263      1.377359
  S      -1.666061      0.083780     -0.342258
  S       1.383955      0.512474     -2.297910
  C      -2.004275      1.637685     -1.251579
  H      -1.220455      1.819570     -1.999502
  H      -2.977553      1.552046     -1.757655
  H      -2.041810      2.493527     -0.562500
  C       0.802807     -3.055344     -1.181729
  H       1.149158     -4.093891     -1.071902
  H      -0.276009     -3.055558     -1.389745
  H       1.322586     -2.577448     -2.023125
  C       0.242180      2.676746      1.692730
  H      -0.728928      2.192812      1.861179
  H       0.520180      3.258096      2.584313
  H       0.152642      3.361966      0.837571
  C       3.075067      1.162288     -2.042470
  H       3.770260      0.345656     -1.801634
  H       3.416289      1.652816     -2.964965
  H       3.082334      1.882222     -1.214825
21
Coordinates from ORCA-job Qu_sex_nagative_1_sextet_min E -3015.300059356262
  Fe      0.608811      0.022473     -0.194540
  S       1.136618     -2.126341      0.371691
  S       1.521224      1.432798      1.358573
  S      -1.677202      0.102434     -0.343505
  S       1.372237      0.504587     -2.315143
  C      -2.007033      1.662342     -1.246423
  H      -1.227921      1.837739     -2.001269
  H      -2.986203      1.588150     -1.742972
  H      -2.028289      2.516639     -0.554301
  C       0.833367     -3.049499     -1.178543
  H       1.178088     -4.086940     -1.053044
  H      -0.239533     -3.052395     -1.415160
  H       1.375064     -2.576515     -2.009014
  C       0.222242      2.672970      1.708479
  H      -0.742449      2.176221      1.876455
  H       0.503048      3.240298      2.608146
  H       0.119516      3.372381      0.866604
  C       3.073063      1.130400     -2.061237
  H       3.755276      0.305316     -1.813981
  H       3.422772      1.608446     -2.986867
  H       3.089669      1.856111     -1.238099
21
Coordinates from ORCA-job Qu_sex_nagative_1_sextet_min E -3015.300070822016
  Fe      0.610117      0.022908     -0.200757
  S       1.142370     -2.124143      0.369366
  S       1.520123      1.428866      1.357881
  S      -1.675568      0.100440     -0.347519
  S       1.374927      0.510062     -2.319107
  C      -2.006758      1.660206     -1.250059
  H      -1.228969      1.835028     -2.006832
  H      -2.987311      1.586667     -1.743923
  H      -2.025587      2.514885     -0.557834
  C       0.828346     -3.053849     -1.174954
  H       1.179006     -4.089339     -1.049396
  H      -0.246770     -3.062561     -1.401770
  H       1.359062     -2.581363     -2.012975
  C       0.224461      2.672142      1.709979
  H      -0.742154      2.177737      1.873818
  H       0.504945      3.235119      2.612543
  H       0.125560      3.375796      0.871154
  C       3.074716      1.137209     -2.060499
  H       3.757032      0.311799     -1.813045
  H       3.425875      1.618308     -2.984974
  H       3.088941      1.861697     -1.235249
21
Coordinates from ORCA-job Qu_sex_nagative_1_sextet_min E -3015.300078710232
  Fe      0.609376      0.022187     -0.204457
  S       1.145683     -2.123555      0.369366
  S       1.518313      1.425095      1.357939
  S      -1.676384      0.104433     -0.343437
  S       1.374868      0.507486     -2.322530
  C      -2.004154      1.660090     -1.254006
  H      -1.226715      1.828008     -2.012932
  H      -2.986008      1.588027     -1.745427
  H      -2.018448      2.518913     -0.566454
  C       0.827010     -3.054797     -1.173052
  H       1.193016     -4.085704     -1.053622
  H      -0.250290     -3.078263     -1.388874
  H       1.340177     -2.573670     -2.017216
  C       0.225983      2.671017      1.712143
  H      -0.742490      2.178545      1.870959
  H       0.505234      3.229299      2.618096
  H       0.130751      3.380278      0.877510
  C       3.072515      1.139041     -2.059952
  H       3.754923      0.314954     -1.807859
  H       3.425563      1.620429     -2.984539
  H       3.083443      1.865802     -1.235803
21
Coordinates from ORCA-job Qu_sex_nagative_1_sextet_min E -3015.300080907471
  Fe      0.608050      0.023521     -0.207946
  S       1.147215     -2.120915      0.370002
  S       1.516478      1.426072      1.355670
  S      -1.677755      0.107606     -0.344382
  S       1.374039      0.508613     -2.325760
  C      -2.005045      1.664068     -1.253660
  H      -1.228561      1.831548     -2.013506
  H      -2.987733      1.593756     -1.743654
  H      -2.017215      2.522579     -0.565791
  C       0.830525     -3.054132     -1.171478
  H       1.201620     -4.083254     -1.052544
  H      -0.246999     -3.083144     -1.385765
  H       1.339484     -2.570831     -2.016942
  C       0.223155      2.669401      1.713679
  H      -0.744298      2.175150      1.873397
  H       0.502834      3.226906      2.620005
  H       0.125090      3.380193      0.880582
  C       3.073477      1.134858     -2.062147
  H       3.752985      0.308230     -1.810219
  H       3.428333      1.616467     -2.986124
  H       3.086686      1.860924     -1.237566
21
Coordinates from ORCA-job Qu_sex_nagative_1_sextet_min E -3015.300082273077
  Fe      0.605331      0.021953     -0.208737
  S       1.145371     -2.122280      0.371551
  S       1.515277      1.423084      1.356310
  S      -1.680587      0.110889     -0.343393
  S       1.371996      0.507606     -2.326267
  C      -2.006055      1.667518     -1.252898
  H      -1.230184      1.833663     -2.013386
  H      -2.989230      1.598783     -1.742123
  H      -2.016299      2.526264     -0.565549
  C       0.834391     -3.054855     -1.171288
  H       1.208399     -4.082974     -1.053118
  H      -0.242677     -3.087340     -1.387461
  H       1.343160     -2.569073     -2.015377
  C       0.223993      2.668425      1.712243
  H      -0.744620      2.176004      1.870694
  H       0.503228      3.225631      2.618901
  H       0.127913      3.379536      0.879121
  C       3.071320      1.133478     -2.061639
  H       3.750252      0.306586     -1.808469
  H       3.427176      1.614771     -2.985374
  H       3.084211      1.859946     -1.237890
21
Coordinates from ORCA-job Qu_sex_nagative_1_sextet_min E -3015.300082850475
  Fe      0.605737      0.023703     -0.209945
  S       1.148331     -2.119815      0.371649
  S       1.515469      1.425642      1.355048
  S      -1.680357      0.113571     -0.343223
  S       1.371883      0.508541     -2.327853
  C      -2.006082      1.669731     -1.253334
  H      -1.230842      1.835419     -2.014507
  H      -2.989554      1.600883     -1.741986
  H      -2.015790      2.528842     -0.566507
  C       0.835576     -3.053808     -1.169928
  H       1.211006     -4.081463     -1.052009
  H      -0.241876     -3.087899     -1.383870
  H       1.342364     -2.567885     -2.015093
  C       0.221251      2.666615      1.714519
  H      -0.746190      2.171464      1.871699
  H       0.499179      3.222082      2.622658
  H       0.123175      3.379745      0.883334
  C       3.072586      1.130903     -2.064308
  H       3.749872      0.302832     -1.810858
  H       3.429174      1.610601     -2.988307
  H       3.087455      1.857912     -1.241329
