21
Coordinates from ORCA-job Rubredoxin_minus1_quartet_sextet_sextet_min
  Fe  0.60569291522013      0.02370148718716     -0.20995489078442
  S   1.14821054005551     -2.11981896961904      0.37161671595964
  S   1.51545678148075      1.42557791790530      1.35503393817288
  S   -1.68038794433777      0.11344796331071     -0.34324523018757
  S   1.37185138785125      0.50853115543390     -2.32784524961350
  C   -2.00614108173339      1.66963054441435     -1.25331427473209
  H   -1.23088145969911      1.83536455398128     -2.01446616074362
  H   -2.98960169124393      1.60076264066771     -1.74198388632290
  H   -2.01588715087808      2.52871721212256     -0.56644786783794
  C   0.83558104223574     -3.05383647772490     -1.16997789500827
  H   1.21096046622341     -4.08150072486079     -1.05197868556339
  H   -0.24184889531134     -3.08787636192364     -1.38404349613921
  H   1.34247790976471     -2.56795923260498     -2.01510684406131
  C   0.22137555851311      2.66672772858357      1.71449001040577
  H   -0.74618853944323      2.17171756997636      1.87134741836961
  H   0.49921324969991      3.22194991295572      2.62280459304775
  H   0.12363043017368      3.38004657754312      0.88342863552901
  C   3.07253378323436      1.13093931853668     -2.06424322619179
  H   3.74981740005370      0.30290223537843     -1.81066230815294
  H   3.42917715268672      1.61054869792182     -2.98828245669137
  H   3.08732318545488      1.85804149081166     -1.24131874945332
