21
Coordinates from ORCA-job Rubredoxin_minus1_quartet_sextet_quartet_min E -3015.215037145897
  Fe      0.605036      0.063883     -0.216844
  S       1.173998     -2.065766      0.206381
  S       1.807018      0.901254      1.542614
  S      -1.505391     -0.338044     -0.802687
  S       1.024275      1.635844     -1.762702
  C      -2.181416      0.901271     -1.939798
  H      -1.485234      1.133361     -2.658451
  H      -3.071094      0.576022     -2.440543
  H      -2.420118      1.774124     -1.448695
  C       0.279116     -3.098633     -0.953258
  H       0.436371     -4.106648     -0.695699
  H      -0.797787     -2.896649     -0.957110
  H       0.630820     -2.945209     -1.928884
  C       1.238917      2.590258      1.729808
  H       0.239438      2.574885      2.128304
  H       1.880754      3.144055      2.394518
  H       1.230984      3.110903      0.789753
  C       2.779990      1.993962     -1.611803
  H       3.253224      1.400832     -2.107028
  H       2.980404      2.835320     -1.921922
  H       3.203059      1.952588     -0.710104
21
Coordinates from ORCA-job Rubredoxin_minus1_quartet_sextet_quartet_min E -3015.280183014109
  Fe      0.595381      0.059777     -0.214562
  S       1.164684     -2.068186      0.207163
  S       1.791771      0.888885      1.546660
  S      -1.515094     -0.335114     -0.798713
  S       1.015762      1.631937     -1.757064
  C      -2.178181      0.919156     -1.932851
  H      -1.457417      1.155443     -2.673348
  H      -3.079057      0.586409     -2.436676
  H      -2.419493      1.816722     -1.420406
  C       0.279827     -3.130082     -0.948801
  H       0.449929     -4.154354     -0.674110
  H      -0.800199     -2.936111     -0.952452
  H       0.637594     -2.979793     -1.946830
  C       1.228951      2.590246      1.732244
  H       0.218807      2.587731      2.130470
  H       1.879675      3.140508      2.408369
  H       1.228580      3.114954      0.781488
  C       2.777100      2.005319     -1.618659
  H       3.301968      1.348151     -2.168882
  H       2.979605      2.933879     -1.962748
  H       3.202174      1.962139     -0.664444
21
Coordinates from ORCA-job Rubredoxin_minus1_quartet_sextet_quartet_min E -3015.299063981926
  Fe      0.569942      0.039246     -0.213313
  S       1.142709     -2.084049      0.201835
  S       1.732940      0.847187      1.567446
  S      -1.532684     -0.353458     -0.815317
  S       1.003351      1.620740     -1.736043
  C      -2.182686      0.941978     -1.919918
  H      -1.440538      1.201403     -2.676581
  H      -3.092010      0.595465     -2.430186
  H      -2.432583      1.849207     -1.366573
  C       0.280380     -3.189732     -0.954373
  H       0.472471     -4.228609     -0.659703
  H      -0.803857     -3.010283     -0.955603
  H       0.643766     -3.041157     -1.975686
  C       1.260262      2.598778      1.681476
  H       0.225642      2.682387      2.036620
  H       1.921951      3.123315      2.386423
  H       1.335584      3.096812      0.705097
  C       2.763935      2.045351     -1.580740
  H       3.348360      1.360228     -2.139991
  H       2.943490      3.026169     -1.955530
  H       3.141939      2.016637     -0.563490
21
Coordinates from ORCA-job Rubredoxin_minus1_quartet_sextet_quartet_min E -3015.302705049042
  Fe      0.566452      0.023993     -0.242248
  S       1.165711     -2.087820      0.159784
  S       1.653187      0.808444      1.582994
  S      -1.510472     -0.402672     -0.896493
  S       1.013496      1.626777     -1.730322
  C      -2.190145      0.955451     -1.910746
  H      -1.456203      1.280734     -2.664234
  H      -3.096580      0.603155     -2.428470
  H      -2.457035      1.825788     -1.291565
  C       0.268027     -3.234109     -0.942791
  H       0.490980     -4.269758     -0.636712
  H      -0.816568     -3.065157     -0.890562
  H       0.582907     -3.097753     -1.988446
  C       1.281894      2.597322      1.638691
  H       0.231582      2.760907      1.919512
  H       1.926117      3.082729      2.390275
  H       1.455552      3.070593      0.660614
  C       2.769902      2.091932     -1.549474
  H       3.402317      1.386515     -2.090232
  H       2.932597      3.094404     -1.957554
  H       3.088647      2.086141     -0.496173
21
Coordinates from ORCA-job Rubredoxin_minus1_quartet_sextet_quartet_min E -3015.302328094205
  Fe      0.598003      0.070237     -0.263877
  S       1.208199     -2.030426      0.144699
  S       1.638947      0.841274      1.580749
  S      -1.465058     -0.380134     -0.934558
  S       1.052854      1.663364     -1.751255
  C      -2.171031      1.009472     -1.891394
  H      -1.454373      1.364485     -2.653068
  H      -3.084326      0.653925     -2.396009
  H      -2.431847      1.859032     -1.236496
  C       0.302293     -3.214102     -0.919375
  H       0.556095     -4.241319     -0.603431
  H      -0.782381     -3.062676     -0.833248
  H       0.584011     -3.085841     -1.977244
  C       1.134348      2.595175      1.761799
  H       0.080670      2.664678      2.070337
  H       1.757098      3.068101      2.539654
  H       1.250129      3.143072      0.815515
  C       2.852354      2.002440     -1.708150
  H       3.399971      1.252306     -2.312629
  H       3.047553      3.012214     -2.126772
  H       3.228857      1.952337     -0.669397
21
Coordinates from ORCA-job Rubredoxin_minus1_quartet_sextet_quartet_min E -3015.303482178741
  Fe      0.566705      0.038597     -0.288298
  S       1.179302     -2.054741      0.121518
  S       1.572929      0.792578      1.570686
  S      -1.485788     -0.420252     -0.975246
  S       1.036668      1.626543     -1.767943
  C      -2.196883      0.989473     -1.900676
  H      -1.490309      1.352742     -2.664157
  H      -3.115717      0.640074     -2.395605
  H      -2.444974      1.826368     -1.229732
  C       0.280355     -3.260496     -0.925879
  H       0.557736     -4.278151     -0.607888
  H      -0.804608     -3.126994     -0.821669
  H       0.543495     -3.131496     -1.985674
  C       1.254050      2.598118      1.656224
  H       0.200194      2.794271      1.899289
  H       1.880502      3.027120      2.453806
  H       1.479986      3.087754      0.700191
  C       2.801277      2.088292     -1.576448
  H       3.454102      1.353394     -2.096946
  H       2.965028      3.094547     -2.023543
  H       3.068317      2.099874     -0.506159
21
Coordinates from ORCA-job Rubredoxin_minus1_quartet_sextet_quartet_min E -3015.303643845338
  Fe      0.561151      0.042551     -0.286821
  S       1.222773     -2.043948      0.075837
  S       1.524552      0.777053      1.601563
  S      -1.470141     -0.448400     -1.013045
  S       1.008394      1.679935     -1.717909
  C      -2.194456      0.957632     -1.932347
  H      -1.498030      1.317837     -2.701728
  H      -3.120597      0.615557     -2.417621
  H      -2.431892      1.793630     -1.261468
  C       0.265551     -3.248455     -0.913984
  H       0.584299     -4.263259     -0.633746
  H      -0.811063     -3.138364     -0.724550
  H       0.442163     -3.099963     -1.987304
  C       1.288012      2.592991      1.644778
  H       0.235906      2.837933      1.845584
  H       1.905871      3.010744      2.454163
  H       1.571413      3.054402      0.689139
  C       2.780503      2.109111     -1.543725
  H       3.403403      1.393460     -2.100661
  H       2.951838      3.118026     -1.951105
  H       3.082716      2.079141     -0.489200
21
Coordinates from ORCA-job Rubredoxin_minus1_quartet_sextet_quartet_min E -3015.303830321574
  Fe      0.594944      0.035891     -0.329072
  S       1.230620     -2.050648      0.063091
  S       1.579880      0.783711      1.537992
  S      -1.448922     -0.438219     -1.026256
  S       1.053891      1.636009     -1.794414
  C      -2.180170      0.985067     -1.913605
  H      -1.510172      1.326448     -2.714464
  H      -3.136763      0.667703     -2.355773
  H      -2.364389      1.826943     -1.233320
  C       0.255495     -3.262374     -0.899173
  H       0.589971     -4.274432     -0.625970
  H      -0.816456     -3.161133     -0.679416
  H       0.400314     -3.112890     -1.977367
  C       1.239039      2.579974      1.646564
  H       0.184339      2.754535      1.901531
  H       1.868844      3.011627      2.439813
  H       1.450070      3.084594      0.693690
  C       2.806469      2.113249     -1.556508
  H       3.466924      1.396133     -2.060014
  H       2.972958      3.108657     -1.990553
  H       3.065480      2.126772     -0.490927
21
Coordinates from ORCA-job Rubredoxin_minus1_quartet_sextet_quartet_min E -3015.303957600803
  Fe      0.549766      0.057120     -0.289990
  S       1.177113     -2.022403      0.119576
  S       1.507800      0.800492      1.581410
  S      -1.488318     -0.418816     -0.992614
  S       1.025465      1.633902     -1.767265
  C      -2.197258      1.000915     -1.906448
  H      -1.540979      1.291185     -2.739793
  H      -3.177190      0.698128     -2.306233
  H      -2.330553      1.871204     -1.248976
  C       0.313111     -3.245598     -0.933562
  H       0.677874     -4.249991     -0.668679
  H      -0.772281     -3.198031     -0.769782
  H       0.509342     -3.055755     -1.997579
  C       1.228919      2.610909      1.672805
  H       0.178600      2.825499      1.915711
  H       1.865325      3.021939      2.471835
  H       1.466373      3.101394      0.719375
  C       2.804292      2.042179     -1.579571
  H       3.424563      1.291187     -2.094419
  H       2.996483      3.029045     -2.032430
  H       3.083918      2.053111     -0.517520
21
Coordinates from ORCA-job Rubredoxin_minus1_quartet_sextet_quartet_min E -3015.304019796445
  Fe      0.568842      0.055978     -0.315139
  S       1.221503     -2.018561      0.058391
  S       1.518816      0.775658      1.562593
  S      -1.465840     -0.433785     -1.012215
  S       1.021201      1.652992     -1.773128
  C      -2.172367      0.977171     -1.942560
  H      -1.525295      1.243819     -2.791129
  H      -3.161360      0.676960     -2.321316
  H      -2.285402      1.861101     -1.299569
  C       0.270242     -3.250748     -0.906173
  H       0.669157     -4.251011     -0.677286
  H      -0.794270     -3.213865     -0.636398
  H       0.359266     -3.059632     -1.984192
  C       1.251236      2.587040      1.678772
  H       0.203055      2.804974      1.927922
  H       1.892842      2.982578      2.481331
  H       1.488393      3.088495      0.731034
  C       2.789869      2.097653     -1.563111
  H       3.431987      1.355734     -2.065730
  H       2.967838      3.086261     -2.019742
  H       3.052653      2.118806     -0.496506
21
Coordinates from ORCA-job Rubredoxin_minus1_quartet_sextet_quartet_min E -3015.304043158588
  Fe      0.568252      0.048057     -0.327603
  S       1.220234     -2.022047      0.066342
  S       1.481660      0.782472      1.560995
  S      -1.453156     -0.448165     -1.057189
  S       1.043208      1.637498     -1.785902
  C      -2.192501      0.996304     -1.906301
  H      -1.548525      1.328617     -2.732622
  H      -3.172130      0.697602     -2.309403
  H      -2.330270      1.837252     -1.213731
  C       0.288156     -3.255531     -0.912907
  H       0.692130     -4.253481     -0.684567
  H      -0.779700     -3.229247     -0.654804
  H       0.386411     -3.058680     -1.988568
  C       1.233659      2.597117      1.643023
  H       0.184151      2.829664      1.871982
  H       1.867753      3.001547      2.446887
  H       1.491480      3.079688      0.690438
  C       2.808919      2.076148     -1.548815
  H       3.452589      1.327530     -2.029228
  H       3.001183      3.054802     -2.011446
  H       3.058862      2.110469     -0.480732
21
Coordinates from ORCA-job Rubredoxin_minus1_quartet_sextet_quartet_min E -3015.304074384352
  Fe      0.559888      0.054188     -0.302292
  S       1.208220     -2.018444      0.084048
  S       1.499787      0.788882      1.573083
  S      -1.473165     -0.431866     -1.006014
  S       1.023726      1.639954     -1.768410
  C      -2.183216      0.987905     -1.918875
  H      -1.530518      1.272709     -2.756230
  H      -3.167200      0.691629     -2.313264
  H      -2.307440      1.860426     -1.263559
  C       0.293324     -3.241002     -0.924134
  H       0.694753     -4.241458     -0.701643
  H      -0.778661     -3.219518     -0.682847
  H       0.407944     -3.031250     -1.995832
  C       1.235869      2.600451      1.664527
  H       0.190844      2.821766      1.923492
  H       1.888456      3.012143      2.449808
  H       1.461668      3.086437      0.705346
  C       2.796460      2.062384     -1.559934
  H       3.424518      1.305422     -2.045656
  H       2.991870      3.036369     -2.029373
  H       3.065238      2.100488     -0.496389
21
Coordinates from ORCA-job Rubredoxin_minus1_quartet_sextet_quartet_min E -3015.304089373930
  Fe      0.562238      0.054200     -0.306775
  S       1.213078     -2.016618      0.077620
  S       1.494025      0.786810      1.570925
  S      -1.468904     -0.433946     -1.012840
  S       1.028255      1.638789     -1.772043
  C      -2.182873      0.989833     -1.916814
  H      -1.530226      1.283165     -2.751903
  H      -3.165052      0.691118     -2.314003
  H      -2.311464      1.857616     -1.255341
  C       0.292027     -3.241886     -0.922830
  H       0.698298     -4.241526     -0.704393
  H      -0.777538     -3.223222     -0.671160
  H       0.395936     -3.031390     -1.995659
  C       1.231717      2.599235      1.665147
  H       0.187835      2.821591      1.928100
  H       1.887198      3.009466      2.448892
  H       1.453970      3.085447      0.705482
  C       2.800875      2.063162     -1.561581
  H       3.432165      1.298353     -2.035734
  H       2.998140      3.033260     -2.043326
  H       3.062665      2.114156     -0.495915
21
Coordinates from ORCA-job Rubredoxin_minus1_quartet_sextet_quartet_min E -3015.304099709459
  Fe      0.561638      0.052419     -0.305755
  S       1.213080     -2.017183      0.078050
  S       1.489352      0.787359      1.570924
  S      -1.469828     -0.434051     -1.010983
  S       1.031027      1.633050     -1.773278
  C      -2.184375      0.991277     -1.911863
  H      -1.530891      1.288040     -2.745155
  H      -3.165582      0.692822     -2.311663
  H      -2.315153      1.857129     -1.248183
  C       0.294392     -3.240084     -0.927501
  H       0.703821     -4.239766     -0.715009
  H      -0.774935     -3.226258     -0.674494
  H       0.396106     -3.023598     -1.999320
  C       1.229705      2.600407      1.660646
  H       0.188695      2.824517      1.933475
  H       1.893416      3.014593      2.435374
  H       1.441969      3.081720      0.696246
  C       2.802356      2.059303     -1.557354
  H       3.436351      1.283195     -2.009176
  H       3.005085      3.018848     -2.058168
  H       3.056136      2.133876     -0.490963
21
Coordinates from ORCA-job Rubredoxin_minus1_quartet_sextet_quartet_min E -3015.304114726411
  Fe      0.562292      0.050053     -0.301028
  S       1.219318     -2.016905      0.075772
  S       1.479275      0.790707      1.574425
  S      -1.469865     -0.432864     -1.005299
  S       1.038610      1.624626     -1.771412
  C      -2.186236      0.994775     -1.900111
  H      -1.530168      1.300154     -2.728313
  H      -3.164384      0.696326     -2.307394
  H      -2.324036      1.856085     -1.231794
  C       0.300932     -3.231878     -0.939436
  H       0.717560     -4.232263     -0.744515
  H      -0.766756     -3.228822     -0.679189
  H       0.393339     -2.999799     -2.008753
  C       1.216349      2.603471      1.656517
  H       0.185253      2.825438      1.966686
  H       1.906603      3.031865      2.399749
  H       1.388328      3.073582      0.678560
  C       2.810435      2.044154     -1.553677
  H       3.442409      1.236921     -1.949673
  H       3.030420      2.972025     -2.104792
  H       3.052687      2.179964     -0.490472
21
Coordinates from ORCA-job Rubredoxin_minus1_quartet_sextet_quartet_min E -3015.304122969786
  Fe      0.558838      0.048839     -0.294395
  S       1.215890     -2.018286      0.079380
  S       1.477865      0.793205      1.577471
  S      -1.476788     -0.428474     -0.992583
  S       1.038871      1.617634     -1.769703
  C      -2.187014      0.995308     -1.897934
  H      -1.530617      1.290870     -2.729366
  H      -3.167221      0.698892     -2.301774
  H      -2.319775      1.862682     -1.236513
  C       0.305555     -3.228342     -0.948836
  H       0.722279     -4.229536     -0.758307
  H      -0.763682     -3.228411     -0.695018
  H       0.404022     -2.989021     -2.015975
  C       1.215066      2.606172      1.656044
  H       0.193476      2.827969      1.996631
  H       1.926647      3.041946      2.374456
  H       1.355008      3.068847      0.669422
  C       2.809764      2.037229     -1.548713
  H       3.443036      1.215386     -1.911010
  H       3.037648      2.945559     -2.128472
  H       3.043499      2.209146     -0.488954
21
Coordinates from ORCA-job Rubredoxin_minus1_quartet_sextet_quartet_min E -3015.304136518063
  Fe      0.553303      0.046747     -0.284478
  S       1.215429     -2.020673      0.078687
  S       1.470774      0.797512      1.584319
  S      -1.486950     -0.421846     -0.976236
  S       1.042384      1.606922     -1.766661
  C      -2.187967      0.997133     -1.895358
  H      -1.531301      1.279111     -2.731082
  H      -3.171209      0.704114     -2.294295
  H      -2.313228      1.872451     -1.243180
  C       0.313575     -3.222372     -0.966652
  H       0.730310     -4.225091     -0.784646
  H      -0.757132     -3.225974     -0.719269
  H       0.418355     -2.971569     -2.030482
  C       1.208945      2.611048      1.657506
  H       0.219246      2.832984      2.082544
  H       1.976518      3.063477      2.304321
  H       1.258163      3.055382      0.653809
  C       2.811746      2.024156     -1.538218
  H       3.445663      1.172326     -1.820753
  H       3.059139      2.882507     -2.182301
  H       3.026603      2.279269     -0.491724
21
Coordinates from ORCA-job Rubredoxin_minus1_quartet_sextet_quartet_min E -3015.304146983540
  Fe      0.549458      0.047288     -0.284251
  S       1.215323     -2.020581      0.075622
  S       1.463763      0.797022      1.587811
  S      -1.489469     -0.422977     -0.979746
  S       1.040651      1.608224     -1.765924
  C      -2.189805      0.996783     -1.898389
  H      -1.534134      1.277292     -2.735250
  H      -3.174065      0.704341     -2.295174
  H      -2.312699      1.872314     -1.246231
  C       0.315407     -3.223857     -0.969669
  H       0.730927     -4.226359     -0.784282
  H      -0.755866     -3.225468     -0.724836
  H       0.423489     -2.975282     -2.033692
  C       1.213023      2.612451      1.660025
  H       0.232107      2.839983      2.102273
  H       1.993971      3.062815      2.291988
  H       1.246094      3.052854      0.653950
  C       2.809772      2.024741     -1.534565
  H       3.443809      1.166575     -1.796362
  H       3.061981      2.868783     -2.195030
  H       3.018627      2.300673     -0.492416
21
Coordinates from ORCA-job Rubredoxin_minus1_quartet_sextet_quartet_min E -3015.304161873315
  Fe      0.542208      0.048780     -0.286854
  S       1.218015     -2.019002      0.066556
  S       1.444046      0.796168      1.594057
  S      -1.491460     -0.427656     -0.994425
  S       1.040080      1.609833     -1.767964
  C      -2.194213      0.998628     -1.901748
  H      -1.539264      1.286096     -2.736796
  H      -3.178185      0.706626     -2.299505
  H      -2.317686      1.868564     -1.242327
  C       0.320743     -3.226191     -0.976813
  H       0.735947     -4.227707     -0.785974
  H      -0.750993     -3.225820     -0.734263
  H       0.432005     -2.981615     -2.041513
  C       1.216538      2.615346      1.666211
  H       0.261939      2.854036      2.157746
  H       2.032920      3.062829      2.253685
  H       1.200556      3.046720      0.655821
  C       2.809010      2.022841     -1.527875
  H       3.440172      1.146055     -1.725822
  H       3.078529      2.821978     -2.235199
  H       3.001459      2.361106     -0.501150
21
Coordinates from ORCA-job Rubredoxin_minus1_quartet_sextet_quartet_min E -3015.304169626832
  Fe      0.536957      0.049119     -0.288000
  S       1.218089     -2.018575      0.062562
  S       1.432030      0.794953      1.597409
  S      -1.493289     -0.430931     -1.002784
  S       1.039444      1.608704     -1.770103
  C      -2.196276      0.998555     -1.905370
  H      -1.539951      1.290122     -2.738003
  H      -3.179110      0.706686     -2.306029
  H      -2.321804      1.865406     -1.242214
  C       0.323185     -3.226706     -0.981887
  H       0.737892     -4.227919     -0.788374
  H      -0.749145     -3.225679     -0.742071
  H       0.437359     -2.983571     -2.046671
  C       1.220652      2.616426      1.668839
  H       0.292592      2.863377      2.205244
  H       2.067116      3.063684      2.212208
  H       1.157439      3.039988      0.656980
  C       2.806914      2.022982     -1.520335
  H       3.436424      1.135952     -1.670806
  H       3.089713      2.789356     -2.258038
  H       2.986133      2.405688     -0.506707
21
Coordinates from ORCA-job Rubredoxin_minus1_quartet_sextet_quartet_min E -3015.304175865714
  Fe      0.524724      0.049575     -0.291338
  S       1.213655     -2.018260      0.059174
  S       1.407484      0.789907      1.603487
  S      -1.496139     -0.440181     -1.024449
  S       1.035619      1.606924     -1.775006
  C      -2.199426      0.994775     -1.919366
  H      -1.538153      1.295612     -2.745035
  H      -3.178292      0.702208     -2.329163
  H      -2.332275      1.855117     -1.248950
  C       0.324273     -3.228766     -0.987380
  H       0.735916     -4.229536     -0.784821
  H      -0.749995     -3.224825     -0.756510
  H       0.447565     -2.991499     -2.052622
  C       1.237069      2.616261      1.672133
  H       0.377575      2.884499      2.304264
  H       2.144510      3.058685      2.111097
  H       1.069727      3.025124      0.666107
  C       2.797981      2.030789     -1.500843
  H       3.426016      1.133596     -1.574070
  H       3.103982      2.745578     -2.280216
  H       2.950552      2.482032     -0.510643
21
Coordinates from ORCA-job Rubredoxin_minus1_quartet_sextet_quartet_min E -3015.304182914187
  Fe      0.526490      0.050392     -0.294841
  S       1.209869     -2.017746      0.064648
  S       1.412657      0.786428      1.600435
  S      -1.491344     -0.443773     -1.031877
  S       1.031742      1.612284     -1.775203
  C      -2.197919      0.991133     -1.924625
  H      -1.535273      1.296789     -2.747553
  H      -3.174527      0.696456     -2.338308
  H      -2.335755      1.849107     -1.252060
  C       0.317933     -3.231121     -0.976203
  H       0.728497     -4.231453     -0.768928
  H      -0.756339     -3.225530     -0.745196
  H       0.440747     -2.999327     -2.042733
  C       1.244605      2.612640      1.670094
  H       0.363088      2.882390      2.270169
  H       2.137085      3.049606      2.144042
  H       1.118552      3.027496      0.660562
  C       2.794208      2.040433     -1.503924
  H       3.428413      1.154608     -1.638587
  H       3.083325      2.803183     -2.243621
  H       2.956311      2.433616     -0.490442
21
Coordinates from ORCA-job Rubredoxin_minus1_quartet_sextet_quartet_min E -3015.304194417533
  Fe      0.527202      0.049625     -0.287801
  S       1.207450     -2.017760      0.071701
  S       1.414759      0.788674      1.602723
  S      -1.493879     -0.438406     -1.018928
  S       1.033751      1.608048     -1.770047
  C      -2.196925      0.991755     -1.920929
  H      -1.535966      1.288302     -2.748328
  H      -3.176215      0.698925     -2.329574
  H      -2.329276      1.855860     -1.255324
  C       0.321116     -3.225142     -0.980555
  H       0.735758     -4.225987     -0.784145
  H      -0.753246     -3.227029     -0.749753
  H       0.442658     -2.981901     -2.044541
  C       1.237134      2.613844      1.669642
  H       0.357882      2.879794      2.274888
  H       2.129467      3.058380      2.136911
  H       1.101277      3.025268      0.659886
  C       2.797688      2.031742     -1.506296
  H       3.428993      1.142990     -1.637495
  H       3.087933      2.790465     -2.249981
  H       2.964804      2.430166     -0.496204
21
Coordinates from ORCA-job Rubredoxin_minus1_quartet_sextet_quartet_min E -3015.304200935358
  Fe      0.522975      0.048952     -0.286424
  S       1.202584     -2.018562      0.075686
  S       1.407509      0.785926      1.605524
  S      -1.495178     -0.439904     -1.023603
  S       1.032467      1.606033     -1.769321
  C      -2.196734      0.989017     -1.928489
  H      -1.534588      1.284423     -2.755289
  H      -3.175508      0.696094     -2.338322
  H      -2.329951      1.853970     -1.264233
  C       0.320253     -3.224521     -0.981326
  H       0.734844     -4.225526     -0.785548
  H      -0.754908     -3.227777     -0.754189
  H       0.444984     -2.979388     -2.044487
  C       1.243900      2.612552      1.670904
  H       0.394189      2.885532      2.314195
  H       2.157910      3.056814      2.094619
  H       1.064445      3.018125      0.665580
  C       2.793905      2.035734     -1.499474
  H       3.426719      1.145260     -1.610464
  H       3.089224      2.782214     -2.253682
  H       2.953325      2.452647     -0.495807
21
Coordinates from ORCA-job Rubredoxin_minus1_quartet_sextet_quartet_min E -3015.304209200166
  Fe      0.516016      0.047475     -0.285013
  S       1.192945     -2.020562      0.083486
  S       1.395379      0.779343      1.610024
  S      -1.496167     -0.443047     -1.034673
  S       1.028919      1.604371     -1.767322
  C      -2.195626      0.983082     -1.945080
  H      -1.530410      1.278225     -2.769412
  H      -3.172173      0.688204     -2.358829
  H      -2.333221      1.848890     -1.282957
  C       0.315993     -3.225586     -0.978656
  H       0.729553     -4.226839     -0.781927
  H      -0.760406     -3.229449     -0.757315
  H       0.446129     -2.979602     -2.040941
  C       1.259677      2.608539      1.673806
  H       0.459742      2.893989      2.373281
  H       2.204424      3.048040      2.029786
  H       1.015348      3.007846      0.679751
  C       2.785300      2.047995     -1.488785
  H       3.423813      1.159099     -1.578944
  H       3.083802      2.783609     -2.252539
  H       2.933330      2.483993     -0.491891
21
Coordinates from ORCA-job Rubredoxin_minus1_quartet_sextet_quartet_min E -3015.304212560040
  Fe      0.512470      0.046148     -0.284754
  S       1.186735     -2.022450      0.088112
  S       1.388537      0.774136      1.612454
  S      -1.496120     -0.444659     -1.042469
  S       1.026145      1.604264     -1.765599
  C      -2.194186      0.979002     -1.957482
  H      -1.526265      1.274598     -2.779433
  H      -3.168433      0.681483     -2.374745
  H      -2.336335      1.845340     -1.297052
  C       0.311497     -3.228022     -0.974673
  H       0.723115     -4.229546     -0.775341
  H      -0.765581     -3.230125     -0.756612
  H       0.445260     -2.983732     -2.036889
  C       1.271378      2.604791      1.676870
  H       0.500585      2.896970      2.405759
  H       2.231570      3.038692      1.996517
  H       0.993375      3.003480      0.691554
  C       2.778857      2.059215     -1.483666
  H       3.423306      1.173934     -1.567613
  H       3.075468      2.792590     -2.250191
  H       2.920987      2.501506     -0.488898
21
Coordinates from ORCA-job Rubredoxin_minus1_quartet_sextet_quartet_min E -3015.304215502906
  Fe      0.514385      0.045100     -0.285583
  S       1.185995     -2.023948      0.088695
  S       1.390774      0.771733      1.611614
  S      -1.494584     -0.443933     -1.043640
  S       1.025638      1.605372     -1.764592
  C      -2.192807      0.978265     -1.960623
  H      -1.524013      1.274567     -2.781621
  H      -3.165852      0.678624     -2.379140
  H      -2.337513      1.844832     -1.301020
  C       0.308108     -3.230610     -0.970745
  H       0.717506     -4.232503     -0.768864
  H      -0.768890     -3.229441     -0.752338
  H       0.442369     -2.989262     -2.033569
  C       1.274090      2.602347      1.678855
  H       0.495993      2.892971      2.400524
  H       2.231296      3.033963      2.010231
  H       1.007078      3.004525      0.692015
  C       2.777455      2.065373     -1.486521
  H       3.426197      1.184406     -1.582108
  H       3.067095      2.806811     -2.247625
  H       2.922046      2.498424     -0.488094
21
Coordinates from ORCA-job Rubredoxin_minus1_quartet_sextet_quartet_min E -3015.304216609093
  Fe      0.514770      0.044045     -0.285991
  S       1.185307     -2.025282      0.088861
  S       1.389276      0.770765      1.611848
  S      -1.494354     -0.443739     -1.044998
  S       1.025901      1.604686     -1.764417
  C      -2.192887      0.978643     -1.961501
  H      -1.523111      1.276941     -2.781033
  H      -3.164726      0.677714     -2.381848
  H      -2.339967      1.844298     -1.301138
  C       0.307500     -3.232347     -0.970366
  H       0.713538     -4.234784     -0.764514
  H      -0.770132     -3.227366     -0.755252
  H       0.445886     -2.994049     -2.033376
  C       1.275342      2.601568      1.679727
  H       0.500212      2.892658      2.404381
  H       2.234426      3.031405      2.007949
  H       1.005346      3.004664      0.694081
  C       2.776835      2.067987     -1.486834
  H       3.427365      1.188017     -1.578005
  H       3.065529      2.805887     -2.251504
  H       2.920311      2.505905     -0.490217
