21
Coordinates from ORCA-job Qu_sex_nagative_1_quartet_min
  Fe  0.51476967732770      0.04404434323027     -0.28599075588792
  S   1.18530667578147     -2.02528211369060      0.08886078114562
  S   1.38927540361169      0.77076458006419      1.61184774539809
  S   -1.49435439600501     -0.44373927245873     -1.04499846844589
  S   1.02590096000631      1.60468578476219     -1.76441678206097
  C   -2.19288704459659      0.97864269133918     -1.96150131791890
  H   -1.52311120752792      1.27694141330220     -2.78103319588533
  H   -3.16472620423570      0.67771363943407     -2.38184803186817
  H   -2.33996729758621      1.84429770668494     -1.30113849377511
  C   0.30749975197312     -3.23234683239502     -0.97036602575977
  H   0.71353713453823     -4.23478408720075     -0.76451368037422
  H   -0.77013202898466     -3.22736539342277     -0.75525328348659
  H   0.44588718954734     -2.99404956485192     -2.03337642485741
  C   1.27534194591590      2.60156795431563      1.67972719919286
  H   0.50021452615947      2.89265788064155      2.40438260184844
  H   2.23442711634788      3.03140427917285      2.00794656362423
  H   1.00534391326207      3.00466403363152      0.69408144355300
  C   2.77683433549312      2.06798712989418     -1.48683413079492
  H   3.42736526082990      1.18801702739042     -1.57800250392026
  H   3.06552945395090      2.80588610787968     -2.25150522562581
  H   2.92030987419196      2.50590793227394     -0.49021792409996
