21
lambda = 0.44444444
Fe     0.599986452188     0.078006229162    -0.124894176851
S      1.190683000369    -1.930758003526     0.256508930239
S      1.598257053643     0.937950296365     1.570954791327
S     -1.528783079081     0.044041332420    -0.435888049274
S      1.117043013573     1.163650478929    -1.903926823288
C     -2.114996442891     1.185043923980    -1.661932678959
H     -1.687039612624     0.949589506806    -2.593487981837
H     -3.201691621155     1.112304782405    -1.730059712512
H     -1.850332249253     2.167082743795    -1.399771136666
C      0.571998303762    -2.925270519524    -1.138492341048
H      0.928060873186    -3.943425853621    -0.990825056423
H     -0.519595632602    -2.918976308702    -1.155919761128
H      0.947888771345    -2.541511808389    -2.084128836376
C      0.830324133691     2.554987406445     1.808130133792
H     -0.228590630918     2.442151862894     1.994538355905
H      1.302169905477     3.029344689161     2.677591622477
H      0.979882014932     3.171503985837     0.930514391441
C      2.834952709661     1.574239903278    -1.845040080910
H      3.402162469081     0.703885368326    -1.695684019037
H      3.120010998533     2.044618540295    -2.793170974440
H      3.009974609085     2.239156683661    -1.049166506431
