21
lambda = 0.77777778
Fe     0.671002502264     0.013151838554    -0.207565342877
S      1.069490797239    -2.046168046051     0.320506211254
S      1.774167268377     0.945242617545     1.418270677936
S     -1.458517170406    -0.119244554913    -0.627165809268
S      1.207092003010     1.130328698754    -1.991444206585
C     -2.054802339703     1.215447398083    -1.657593100609
H     -1.569985549258     1.182091245297    -2.606271193629
H     -3.132999875202     1.092909094012    -1.793278337669
H     -1.862859972237     2.156791541978    -1.199931339147
C      0.431109724766    -3.084190246994    -1.033405643159
H      0.718900233574    -4.114076785997    -0.815166785723
H     -0.659083890417    -3.010929701663    -1.083620274060
H      0.856179887694    -2.780635237065    -1.990223358169
C      0.866715262513     2.481369023738     1.737748555960
H     -0.167158016813     2.266865383804     1.990424425859
H      1.347914622705     2.985786008132     2.585032422364
H      0.901091253905     3.127187762234     0.863439112670
C      2.845574935987     1.816279572198    -1.831407782015
H      3.534731096356     1.057329559252    -1.548894002951
H      3.135978781639     2.238235271963    -2.801314323165
H      2.847823484007     2.583844797137    -1.092289817017
