21
lambda = 0.55555556
Fe     0.623658476731     0.056388110302    -0.152451237509
S      1.150285590163    -1.969227997208     0.277841380611
S      1.656893833391     0.940381065543     1.520060058702
S     -1.505361104844    -0.010387225491    -0.499647276293
S      1.147059357772     1.152543196430    -1.933099310309
C     -2.094931729827     1.195178416796    -1.660486203109
H     -1.648021573390     1.027090031428    -2.597749087218
H     -3.178794359245     1.105839548615    -1.751132640164
H     -1.854508149212     2.163652364719    -1.333157980709
C      0.525035432929    -2.978243737439    -1.103463417453
H      0.858340627006    -4.000309473552    -0.932272260581
H     -0.566091726727    -2.949627393440    -1.131819926548
H      0.917319151192    -2.621219610007    -2.052826981384
C      0.842454518776     2.530447897675     1.784669686902
H     -0.208113059752     2.383722941042     1.993167163394
H      1.317418172912     3.014825066175     2.646738629320
H      0.953618372537     3.156731893787     0.908156071490
C      2.838493435939     1.654919806447    -1.840496029184
H      3.446351983027     0.821700162281    -1.646753938731
H      3.125333609307     2.109157354948    -2.795885510155
H      2.955924181314     2.354052820948    -1.063541101069
