21
lambda = 0.88888889
Fe     0.694674502827    -0.008466275556    -0.235122389913
S      1.029093366902    -2.084638037167     0.341838675717
S      1.832804042375     0.947673394222     1.367375952301
S     -1.435095219279    -0.173673051806    -0.690925009164
S      1.237108326957     1.119221417275    -2.020616682621
C     -2.034737646516     1.225581904704    -1.656146614805
H     -1.530967532448     1.259591759532    -2.610532267457
H     -3.110102633281     1.086443879850    -1.814351255718
H     -1.867035889230     2.153361167486    -1.133318202399
C      0.384146896768    -3.137163450665    -0.998376740930
H      0.649180044313    -4.170960388807    -0.756614012399
H     -0.705579943047    -3.041580791102    -1.059520495787
H      0.825610334833    -2.860343002614    -1.958921507885
C      0.878845642645     2.456829533389     1.714288111930
H     -0.146680463107     2.208436489918     1.989053205406
H      1.363162864557     2.971266388294     2.554179451627
H      0.874827641108     3.112415699954     0.841080801741
C      2.849115656019     1.896959422628    -1.826863730506
H      3.578920589559     1.175144269993    -1.499963943585
H      3.141301372294     2.302774042122    -2.804028865470
H      2.793773085753     2.698740868348    -1.106664390083
