21
lambda = 0.22222222
Fe     0.552642403101     0.121242466884    -0.069780055537
S      1.271477820781    -1.853818016162     0.213844029494
S      1.480983494145     0.933088758010     1.672744256575
S     -1.575627027556     0.152898448241    -0.308369595235
S      1.057010325176     1.185865043929    -1.845581849248
C     -2.155125869020     1.164774938347    -1.664825630657
H     -1.765075691094     0.794588457563    -2.584965771077
H     -3.247486144977     1.125235249987    -1.687913857209
H     -1.841980449333     2.173943501945    -1.532997448579
C      0.665924045430    -2.819324083694    -1.208550188236
H      1.067501365545    -3.829658613761    -1.107930648105
H     -0.426603444354    -2.857674139227    -1.204119430286
H      1.009028011652    -2.382096205155    -2.146732546358
C      0.806063363520     2.604066423983     1.855051027574
H     -0.269545773251     2.559009706600     1.997280740927
H      1.271673370608     3.058383935131     2.739297608791
H      1.032409299720     3.201048169938     0.975231031342
C      2.827871257107     1.412880096942    -1.854128184360
H      3.313783441190     0.468255780418    -1.793544179650
H      3.109365776984     1.915540910989    -2.787741903009
H      3.118075464626     2.009364409089    -1.020417317157
