21
Coordinates from ORCA-job Sing_Q_negative_2 E -3015.187965543797
  Fe      0.465648      0.044030     -0.013246
  S       1.672775     -1.804694      0.216583
  S       1.437422      0.999642      1.695653
  S      -1.683648      0.323298     -0.222299
  S       0.988718      1.216899     -1.781997
  C      -2.349918      1.474094     -1.519251
  H      -1.708315      1.428387     -2.414478
  H      -3.383287      1.188222     -1.793552
  H      -2.356820      2.518239     -1.157832
  C       1.078086     -2.809383     -1.214188
  H       1.310242     -3.880902     -1.053673
  H      -0.010300     -2.689428     -1.335653
  H       1.558977     -2.483599     -2.152612
  C       0.601979      2.640900      1.835975
  H      -0.483569      2.509959      1.968502
  H       1.015849      3.200810      2.698811
  H       0.765625      3.219990      0.914498
  C       2.814447      1.035498     -1.980934
  H       3.091433     -0.017717     -2.143340
  H       3.156005      1.641273     -2.843320
  H       3.321017      1.382097     -1.067797
21
Coordinates from ORCA-job Sing_Q_negative_2 E -3015.184996996637
  Fe      0.477487      0.088944     -0.000392
  S       1.673167     -1.753476      0.279081
  S       1.465364      1.057329      1.687032
  S      -1.662362      0.408756     -0.195984
  S       0.987573      1.189556     -1.814533
  C      -2.334341      1.524034     -1.522037
  H      -1.708456      1.437902     -2.425161
  H      -3.376203      1.243951     -1.770117
  H      -2.321166      2.579916     -1.196695
  C       1.163146     -2.722709     -1.207184
  H       1.352162     -3.801372     -1.039859
  H       0.091172     -2.569585     -1.412486
  H       1.726199     -2.402869     -2.100990
  C       0.519587      2.628475      1.916359
  H      -0.538550      2.413072      2.130088
  H       0.955649      3.209556      2.754339
  H       0.565835      3.228087      0.994061
  C       2.789130      0.887791     -2.072496
  H       2.988073     -0.176291     -2.269193
  H       3.143820      1.491334     -2.930632
  H       3.345079      1.175212     -1.167350
21
Coordinates from ORCA-job Sing_Q_negative_2 E -3015.176439072372
  Fe      0.478192      0.053876     -0.037182
  S       1.733514     -1.715311      0.288385
  S       1.396118      0.970788      1.700751
  S      -1.638434      0.405826     -0.234951
  S       0.941616      1.086278     -1.890243
  C      -2.335780      1.599639     -1.481256
  H      -1.717208      1.579808     -2.392924
  H      -3.376193      1.321870     -1.739331
  H      -2.335521      2.632118     -1.086974
  C       1.215041     -2.706992     -1.178113
  H       1.412566     -3.779807     -0.985642
  H       0.140023     -2.561817     -1.379203
  H       1.772944     -2.405131     -2.082145
  C       0.498217      2.583749      1.858548
  H      -0.570531      2.413189      2.045755
  H       0.929918      3.170551      2.696462
  H       0.592018      3.158435      0.922038
  C       2.762218      0.862580     -2.069735
  H       3.018325     -0.188242     -2.263497
  H       3.117837      1.484569     -2.913169
  H       3.267486      1.171640     -1.141725
21
Coordinates from ORCA-job Sing_Q_negative_2 E -3015.176154918901
  Fe      0.478033      0.069866     -0.032952
  S       1.719894     -1.704600      0.272106
  S       1.388267      0.933709      1.731675
  S      -1.624344      0.482358     -0.192602
  S       0.927401      1.064385     -1.907916
  C      -2.336013      1.552726     -1.541376
  H      -1.774841      1.392866     -2.476451
  H      -3.399621      1.297405     -1.707278
  H      -2.269136      2.623904     -1.276798
  C       1.173995     -2.707412     -1.179538
  H       1.407888     -3.777198     -1.002709
  H       0.089795     -2.590855     -1.335517
  H       1.685740     -2.386099     -2.103941
  C       0.545636      2.575367      1.905348
  H      -0.532566      2.438271      2.071122
  H       0.982264      3.134099      2.759768
  H       0.675636      3.160315      0.981033
  C       2.759734      0.913854     -2.059159
  H       3.063102     -0.129139     -2.233675
  H       3.105570      1.537864     -2.906879
  H       3.235930      1.255929     -1.128411
21
Coordinates from ORCA-job Sing_Q_negative_2 E -3015.171598179862
  Fe      0.497156      0.134300     -0.053436
  S       1.785880     -1.585365      0.249145
  S       1.246471      0.920196      1.810920
  S      -1.577168      0.602065     -0.171178
  S       0.914237      0.970129     -2.008315
  C      -2.292788      1.669161     -1.527886
  H      -1.785504      1.472329     -2.487415
  H      -3.365822      1.439490     -1.635442
  H      -2.184131      2.744286     -1.292493
  C       1.288072     -2.697081     -1.149839
  H       1.605576     -3.746631     -0.951370
  H       0.198553     -2.666499     -1.268454
  H       1.739437     -2.371019     -2.102358
  C       0.411535      2.560289      2.036926
  H      -0.680615      2.422842      2.115566
  H       0.789595      3.065949      2.948943
  H       0.610941      3.192868      1.162756
  C       2.742367      0.780055     -2.228572
  H       3.027561     -0.281459     -2.342514
  H       3.078092      1.339766     -3.129012
  H       3.252921      1.171943     -1.340122
21
Coordinates from ORCA-job Sing_Q_negative_2 E -3015.171118590084
  Fe      0.459477      0.157247     -0.034762
  S       1.766921     -1.545846      0.264251
  S       1.067119      0.899546      1.899740
  S      -1.600520      0.665234     -0.127774
  S       0.876399      0.841412     -2.051883
  C      -2.282039      1.756636     -1.484013
  H      -1.792923      1.549367     -2.450259
  H      -3.362845      1.554816     -1.577522
  H      -2.139688      2.827430     -1.248742
  C       1.430365     -2.665033     -1.180485
  H       1.795508     -3.696198     -0.985246
  H       0.347917     -2.698156     -1.364478
  H       1.915480     -2.291350     -2.098454
  C       0.336015      2.589367      2.099714
  H      -0.764748      2.527092      2.059968
  H       0.652635      3.041879      3.059252
  H       0.667930      3.230482      1.270971
  C       2.698519      0.629907     -2.317961
  H       2.977537     -0.437229     -2.362125
  H       3.016601      1.121399     -3.261354
  H       3.236704      1.079613     -1.472989
21
Coordinates from ORCA-job Sing_Q_negative_2 E -3015.173658116394
  Fe      0.524037      0.196989     -0.081089
  S       1.851884     -1.510837      0.179629
  S       1.069950      0.915047      1.891519
  S      -1.547152      0.696658     -0.125702
  S       0.921103      0.824376     -2.130052
  C      -2.220115      1.795404     -1.476244
  H      -1.736216      1.586306     -2.443529
  H      -3.306265      1.604305     -1.564353
  H      -2.063393      2.863326     -1.240461
  C       1.375042     -2.761683     -1.105577
  H       1.781974     -3.759087     -0.858989
  H       0.275331     -2.828706     -1.161540
  H       1.744264     -2.469939     -2.103862
  C       0.253834      2.552813      2.147756
  H      -0.839059      2.434806      2.081529
  H       0.531092      2.971543      3.132469
  H       0.566050      3.254779      1.355813
  C       2.744909      0.708699     -2.426075
  H       3.083035     -0.338373     -2.433181
  H       3.013714      1.178328     -3.390301
  H       3.278346      1.222862     -1.611911
21
Coordinates from ORCA-job Sing_Q_negative_2 E -3015.181049547108
  Fe      0.495215      0.208480     -0.037808
  S       1.814386     -1.537476      0.193571
  S       1.036386      0.905904      1.960231
  S      -1.603163      0.678407     -0.102231
  S       0.935576      0.917077     -2.062950
  C      -2.255257      1.706570     -1.508593
  H      -1.736970      1.455913     -2.446661
  H      -3.340679      1.511317     -1.623687
  H      -2.105568      2.783648     -1.316282
  C       1.356342     -2.711557     -1.155854
  H       1.784559     -3.704507     -0.948368
  H       0.256104     -2.802483     -1.230137
  H       1.730302     -2.362549     -2.134437
  C       0.322215      2.594509      2.155359
  H      -0.768865      2.550239      2.031343
  H       0.575772      2.990953      3.156147
  H       0.721592      3.279909      1.383630
  C       2.739534      0.699069     -2.375037
  H       3.009717     -0.364416     -2.418289
  H       3.012908      1.182595     -3.326838
  H       3.322258      1.156012     -1.557259
21
Coordinates from ORCA-job Sing_Q_negative_2 E -3015.182588753365
  Fe      0.494129      0.223596     -0.010531
  S       1.789957     -1.550405      0.234324
  S       1.048251      0.903137      1.999638
  S      -1.604133      0.740507     -0.063867
  S       0.923381      0.887065     -2.058780
  C      -2.258279      1.678120     -1.527068
  H      -1.761829      1.338451     -2.449277
  H      -3.350110      1.515003     -1.614764
  H      -2.070627      2.761207     -1.419743
  C       1.359171     -2.638147     -1.185743
  H       1.817970     -3.630241     -1.026998
  H       0.264833     -2.756493     -1.277973
  H       1.730583     -2.222034     -2.139298
  C       0.335988      2.594325      2.173670
  H      -0.753107      2.553853      2.028186
  H       0.570588      2.985275      3.182786
  H       0.750040      3.284825      1.416226
  C       2.723270      0.650658     -2.359393
  H       2.989500     -0.416628     -2.370867
  H       2.986104      1.105041     -3.330949
  H       3.316685      1.130501     -1.563728
21
Coordinates from ORCA-job Sing_Q_negative_2 E -3015.182034795733
  Fe      0.517800      0.280117     -0.013854
  S       1.839395     -1.488216      0.202991
  S       0.995491      0.862419      2.055325
  S      -1.586086      0.805626     -0.061343
  S       0.940053      0.932714     -2.072553
  C      -2.260623      1.626410     -1.582239
  H      -1.791960      1.199841     -2.483156
  H      -3.355149      1.479380     -1.634498
  H      -2.052773      2.711324     -1.572756
  C       1.325716     -2.590445     -1.175763
  H       1.843501     -3.563540     -1.059480
  H       0.236878     -2.759434     -1.172034
  H       1.588391     -2.159986     -2.157710
  C       0.354561      2.580131      2.243969
  H      -0.723035      2.598049      2.019503
  H       0.533149      2.922468      3.282658
  H       0.851290      3.278137      1.549154
  C       2.731446      0.646974     -2.382361
  H       2.975454     -0.427695     -2.369151
  H       2.990807      1.071647     -3.371278
  H       3.348061      1.131692     -1.609571
21
Coordinates from ORCA-job Sing_Q_negative_2 E -3015.184254870033
  Fe      0.542802      0.326376     -0.022048
  S       1.870187     -1.468280      0.184963
  S       0.947004      0.830764      2.107288
  S      -1.574743      0.883515     -0.045459
  S       0.942944      0.893478     -2.125130
  C      -2.242210      1.595655     -1.617295
  H      -1.791476      1.088278     -2.485264
  H      -3.339056      1.475236     -1.654854
  H      -2.008107      2.671970     -1.697554
  C       1.284872     -2.573778     -1.159579
  H       1.842453     -3.533276     -1.093294
  H       0.207981     -2.781718     -1.078096
  H       1.452311     -2.126250     -2.153040
  C       0.357464      2.562265      2.314184
  H      -0.701383      2.625712      2.013269
  H       0.470907      2.863311      3.374849
  H       0.923596      3.268377      1.687216
  C       2.746045      0.666937     -2.427086
  H       3.047180     -0.387092     -2.302387
  H       2.973384      0.997991     -3.461311
  H       3.350211      1.258145     -1.723521
21
Coordinates from ORCA-job Sing_Q_negative_2 E -3015.185897729966
  Fe      0.559844      0.364930     -0.024912
  S       1.896056     -1.436237      0.171733
  S       0.945754      0.837607      2.125166
  S      -1.567144      0.916740     -0.044927
  S       0.957193      0.934951     -2.132852
  C      -2.232706      1.584727     -1.635379
  H      -1.795415      1.045039     -2.490373
  H      -3.332000      1.475326     -1.661553
  H      -1.987391      2.654796     -1.753659
  C       1.289299     -2.550767     -1.157502
  H       1.846489     -3.509939     -1.109042
  H       0.213921     -2.760555     -1.047905
  H       1.430114     -2.100140     -2.153810
  C       0.338053      2.557946      2.368856
  H      -0.716040      2.620343      2.052882
  H       0.430142      2.838314      3.436779
  H       0.910825      3.282190      1.766928
  C       2.747172      0.639482     -2.464486
  H       3.017124     -0.416653     -2.298712
  H       2.968247      0.918211     -3.514140
  H       3.382829      1.241306     -1.797242
21
Coordinates from ORCA-job Sing_Q_negative_2 E -3015.187469067894
  Fe      0.560007      0.364528     -0.029826
  S       1.892169     -1.445167      0.183030
  S       0.967431      0.843480      2.122344
  S      -1.568856      0.923876     -0.053511
  S       0.949057      0.929269     -2.141972
  C      -2.225969      1.584498     -1.650350
  H      -1.823917      1.014165     -2.502210
  H      -3.330121      1.512310     -1.655909
  H      -1.945295      2.642342     -1.794944
  C       1.293509     -2.556385     -1.156035
  H       1.820556     -3.529400     -1.106988
  H       0.209864     -2.737119     -1.057145
  H       1.459428     -2.104869     -2.148425
  C       0.335959      2.552046      2.396434
  H      -0.720035      2.606097      2.089977
  H       0.429452      2.827982      3.464873
  H       0.899984      3.285923      1.794690
  C       2.742672      0.646895     -2.478508
  H       3.034057     -0.386040     -2.233773
  H       2.956153      0.849753     -3.544905
  H       3.366261      1.313432     -1.860996
21
Coordinates from ORCA-job Sing_Q_negative_2 E -3015.186893365043
  Fe      0.558109      0.373357     -0.033560
  S       1.895119     -1.431982      0.181366
  S       0.953639      0.830807      2.126541
  S      -1.566577      0.941098     -0.061804
  S       0.946543      0.938759     -2.144032
  C      -2.228672      1.573170     -1.667892
  H      -1.863904      0.963104     -2.508897
  H      -3.334594      1.538679     -1.648768
  H      -1.914628      2.615181     -1.851444
  C       1.294724     -2.546703     -1.153962
  H       1.820656     -3.519902     -1.106084
  H       0.211167     -2.724996     -1.049110
  H       1.458004     -2.095947     -2.147175
  C       0.343983      2.545045      2.415740
  H      -0.704502      2.622138      2.090182
  H       0.420493      2.803304      3.489784
  H       0.932418      3.277945      1.836014
  C       2.738705      0.650062     -2.482524
  H       3.030879     -0.374509     -2.206981
  H       2.948689      0.822037     -3.554649
  H       3.362113      1.336968     -1.886895
21
Coordinates from ORCA-job Sing_Q_negative_2 E -3015.186490796886
  Fe      0.559673      0.384445     -0.040421
  S       1.904837     -1.417113      0.182007
  S       0.941772      0.820311      2.130908
  S      -1.560052      0.967520     -0.067759
  S       0.939426      0.934426     -2.155381
  C      -2.221762      1.577816     -1.680974
  H      -1.926239      0.910577     -2.505710
  H      -3.325764      1.622127     -1.627647
  H      -1.840342      2.585720     -1.916976
  C       1.307362     -2.538847     -1.147527
  H       1.841950     -3.507854     -1.101173
  H       0.226595     -2.723881     -1.033870
  H       1.461427     -2.087787     -2.141873
  C       0.334382      2.530874      2.443146
  H      -0.704866      2.623399      2.092236
  H       0.383348      2.762487      3.524810
  H       0.942236      3.273720      1.897525
  C       2.729411      0.645779     -2.503074
  H       3.034538     -0.354527     -2.159694
  H       2.922896      0.748110     -3.587371
  H       3.351536      1.380314     -1.965331
21
Coordinates from ORCA-job Sing_Q_negative_2 E -3015.186426701931
  Fe      0.561859      0.405465     -0.049641
  S       1.918795     -1.395520      0.179836
  S       0.922181      0.806177      2.141406
  S      -1.551448      1.014264     -0.074133
  S       0.932375      0.936927     -2.170300
  C      -2.209295      1.582531     -1.701672
  H      -2.030827      0.830420     -2.486364
  H      -3.296338      1.761080     -1.607761
  H      -1.721870      2.516758     -2.025510
  C       1.324464     -2.528467     -1.139398
  H       1.873462     -3.490032     -1.092074
  H       0.247818     -2.725509     -1.014533
  H       1.465182     -2.079508     -2.136307
  C       0.317176      2.509282      2.490220
  H      -0.709694      2.623471      2.109420
  H       0.331516      2.700209      3.580774
  H       0.946897      3.267982      1.993738
  C       2.717043      0.641642     -2.537419
  H       3.043715     -0.307508     -2.084809
  H       2.879746      0.623334     -3.631656
  H       3.339608      1.444617     -2.107967
21
Coordinates from ORCA-job Sing_Q_negative_2 E -3015.186568860951
  Fe      0.560806      0.422335     -0.056085
  S       1.928317     -1.379609      0.178530
  S       0.908041      0.799616      2.149849
  S      -1.544506      1.058734     -0.075428
  S       0.926444      0.941716     -2.179251
  C      -2.197785      1.594295     -1.714291
  H      -2.148859      0.776161     -2.450816
  H      -3.248380      1.915520     -1.593656
  H      -1.608463      2.432206     -2.119808
  C       1.348720     -2.523362     -1.136493
  H       1.908468     -3.478351     -1.077962
  H       0.273617     -2.730031     -1.015882
  H       1.491274     -2.080458     -2.135602
  C       0.293875      2.491207      2.531130
  H      -0.727868      2.614049      2.138721
  H       0.291451      2.650042      3.626840
  H       0.927448      3.267324      2.067394
  C       2.704491      0.634233     -2.569360
  H       3.051177     -0.256497     -2.021886
  H       2.836369      0.501091     -3.659734
  H       3.327727      1.487396     -2.250361
21
Coordinates from ORCA-job Sing_Q_negative_2 E -3015.186642745003
  Fe      0.556107      0.437745     -0.058416
  S       1.934683     -1.365527      0.177481
  S       0.892130      0.800107      2.159399
  S      -1.537846      1.107725     -0.068203
  S       0.922952      0.947687     -2.181553
  C      -2.189714      1.615405     -1.716434
  H      -2.283565      0.751789     -2.395599
  H      -3.181811      2.083643     -1.583607
  H      -1.507577      2.332940     -2.199358
  C       1.386366     -2.518770     -1.142201
  H       1.955331     -3.466506     -1.063315
  H       0.310903     -2.737078     -1.043616
  H       1.545531     -2.083873     -2.142319
  C       0.261330      2.478000      2.568081
  H      -0.761360      2.598761      2.177357
  H       0.256977      2.613472      3.666801
  H       0.885686      3.272428      2.122430
  C       2.691431      0.614721     -2.600085
  H       3.053774     -0.218996     -1.977338
  H       2.790106      0.377105     -3.675675
  H       3.320932      1.496838     -2.387981
21
Coordinates from ORCA-job Sing_Q_negative_2 E -3015.186646353736
  Fe      0.552347      0.440827     -0.056325
  S       1.933121     -1.363309      0.176716
  S       0.883629      0.801813      2.163155
  S      -1.535997      1.125511     -0.061146
  S       0.926913      0.952021     -2.176785
  C      -2.194826      1.621647     -1.711438
  H      -2.330435      0.747809     -2.370727
  H      -3.168345      2.127904     -1.578597
  H      -1.492879      2.303670     -2.217636
  C       1.401573     -2.515500     -1.151349
  H       1.970042     -3.462374     -1.065420
  H       0.324854     -2.737072     -1.068473
  H       1.572756     -2.081745     -2.150237
  C       0.251291      2.478626      2.574394
  H      -0.773748      2.597165      2.189833
  H       0.253729      2.616022      3.672815
  H       0.871232      3.274078      2.123738
  C       2.692072      0.603261     -2.602399
  H       3.053761     -0.225016     -1.972365
  H       2.782802      0.347899     -3.674293
  H       3.328473      1.484379     -2.407610
21
Coordinates from ORCA-job Sing_Q_negative_2 E -3015.186004711465
  Fe      0.548397      0.453517     -0.059649
  S       1.937323     -1.349947      0.172865
  S       0.851471      0.786199      2.172055
  S      -1.524531      1.179783     -0.057863
  S       0.933139      0.956228     -2.178211
  C      -2.205097      1.624574     -1.715467
  H      -2.485988      0.728105     -2.294129
  H      -3.102157      2.258563     -1.588078
  H      -1.451064      2.171631     -2.304179
  C       1.426241     -2.500168     -1.165467
  H       1.993599     -3.446824     -1.080249
  H       0.348886     -2.726474     -1.094377
  H       1.604267     -2.063789     -2.162477
  C       0.235842      2.464835      2.603537
  H      -0.780851      2.606796      2.206579
  H       0.223816      2.589899      3.703174
  H       0.876498      3.254940      2.171551
  C       2.695863      0.590632     -2.610437
  H       3.089146     -0.159324     -1.906743
  H       2.770533      0.218519     -3.648357
  H       3.317033      1.499919     -2.528226
21
Coordinates from ORCA-job Sing_Q_negative_2 E -3015.186005833213
  Fe      0.541855      0.429592     -0.055002
  S       1.932389     -1.365844      0.180964
  S       0.866087      0.795154      2.161950
  S      -1.533259      1.143554     -0.051150
  S       0.928255      0.938942     -2.170641
  C      -2.209979      1.643072     -1.695893
  H      -2.437984      0.764984     -2.323955
  H      -3.140036      2.224762     -1.554565
  H      -1.476494      2.259257     -2.241209
  C       1.435736     -2.510891     -1.167391
  H       1.996376     -3.461356     -1.077895
  H       0.356564     -2.732418     -1.112418
  H       1.629329     -2.073323     -2.161029
  C       0.234438      2.474140      2.570756
  H      -0.794470      2.590828      2.197420
  H       0.249601      2.627898      3.666814
  H       0.852108      3.260280      2.100652
  C       2.694475      0.584370     -2.595358
  H       3.077473     -0.206961     -1.932169
  H       2.782171      0.267156     -3.650611
  H       3.317730      1.484417     -2.453418
21
Coordinates from ORCA-job Sing_Q_negative_2 E -3015.186172085570
  Fe      0.544310      0.435778     -0.056248
  S       1.935432     -1.361128      0.180101
  S       0.861081      0.790148      2.165498
  S      -1.535265      1.143580     -0.056182
  S       0.928941      0.946329     -2.173707
  C      -2.206301      1.632460     -1.704461
  H      -2.421737      0.750589     -2.331506
  H      -3.141408      2.206511     -1.567656
  H      -1.475800      2.253025     -2.248120
  C       1.425954     -2.507226     -1.160909
  H       1.990049     -3.456689     -1.075701
  H       0.348034     -2.729171     -1.093776
  H       1.609066     -2.068962     -2.155868
  C       0.241460      2.472403      2.576198
  H      -0.782403      2.600713      2.192208
  H       0.245724      2.617301      3.673620
  H       0.870930      3.256591      2.119292
  C       2.693157      0.590653     -2.599348
  H       3.071035     -0.207563     -1.940860
  H       2.780363      0.285154     -3.658383
  H       3.319741      1.487121     -2.448341
21
Coordinates from ORCA-job Sing_Q_negative_2 E -3015.186292221092
  Fe      0.543502      0.433983     -0.056921
  S       1.935787     -1.363020      0.180674
  S       0.860087      0.787840      2.165342
  S      -1.536606      1.143392     -0.056691
  S       0.928812      0.945839     -2.174576
  C      -2.205897      1.632706     -1.705017
  H      -2.419783      0.751165     -2.333053
  H      -3.141630      2.205921     -1.568991
  H      -1.475409      2.254388     -2.247368
  C       1.424214     -2.509260     -1.159047
  H       1.989324     -3.458400     -1.075813
  H       0.346704     -2.731907     -1.088965
  H       1.604340     -2.070341     -2.154257
  C       0.242743      2.471048      2.575142
  H      -0.780264      2.601460      2.189550
  H       0.245473      2.615613      3.672630
  H       0.874565      3.253876      2.119342
  C       2.693548      0.594284     -2.599340
  H       3.075048     -0.198009     -1.935678
  H       2.781369      0.282686     -3.656592
  H       3.316438      1.494350     -2.454523
21
Coordinates from ORCA-job Sing_Q_negative_2 E -3015.186448859402
  Fe      0.540329      0.431342     -0.056912
  S       1.936680     -1.364397      0.182338
  S       0.854792      0.784483      2.166068
  S      -1.539736      1.145814     -0.055631
  S       0.928926      0.946948     -2.174067
  C      -2.206491      1.635486     -1.704202
  H      -2.423771      0.754261     -2.331500
  H      -3.140077      2.212673     -1.569727
  H      -1.473466      2.253844     -2.246872
  C       1.427588     -2.510527     -1.157989
  H       1.995010     -3.458545     -1.077019
  H       0.350730     -2.735944     -1.087108
  H       1.605620     -2.069815     -2.152809
  C       0.242119      2.469723      2.574066
  H      -0.779995      2.603565      2.187321
  H       0.244219      2.614898      3.671475
  H       0.877438      3.249561      2.118164
  C       2.692536      0.594476     -2.600047
  H       3.076085     -0.193827     -1.932754
  H       2.779503      0.277318     -3.655731
  H       3.314326      1.496279     -2.461214
21
Coordinates from ORCA-job Sing_Q_negative_2 E -3015.186543898121
  Fe      0.537371      0.428591     -0.056547
  S       1.936933     -1.365638      0.183935
  S       0.851927      0.783256      2.165807
  S      -1.542013      1.148157     -0.054021
  S       0.928309      0.947352     -2.173195
  C      -2.206761      1.640105     -1.702536
  H      -2.424347      0.759990     -2.331274
  H      -3.139930      2.218135     -1.568423
  H      -1.472670      2.258414     -2.243853
  C       1.432303     -2.512159     -1.157873
  H       2.002253     -3.458714     -1.077895
  H       0.356033     -2.740780     -1.087885
  H       1.609753     -2.069983     -2.152158
  C       0.240214      2.469168      2.572717
  H      -0.782431      2.603051      2.187473
  H       0.244292      2.615493      3.669950
  H       0.875327      3.247918      2.114683
  C       2.690867      0.592513     -2.600631
  H       3.075385     -0.193250     -1.930933
  H       2.776601      0.271163     -3.655129
  H       3.312951      1.494833     -2.466361
21
Coordinates from ORCA-job Sing_Q_negative_2 E -3015.186560213489
  Fe      0.535864      0.427918     -0.056123
  S       1.936862     -1.365425      0.184692
  S       0.850030      0.783044      2.165618
  S      -1.542787      1.151334     -0.052906
  S       0.927601      0.947703     -2.172904
  C      -2.206790      1.643275     -1.701830
  H      -2.420982      0.763400     -2.332022
  H      -3.141706      2.218504     -1.567846
  H      -1.473887      2.264282     -2.241728
  C       1.435727     -2.512503     -1.158319
  H       2.007699     -3.457795     -1.078575
  H       0.359901     -2.743661     -1.089266
  H       1.613035     -2.069349     -2.152179
  C       0.238777      2.469133      2.572981
  H      -0.784125      2.603080      2.188516
  H       0.243871      2.615260      3.670210
  H       0.873620      3.247867      2.114482
  C       2.689351      0.589590     -2.601422
  H       3.073717     -0.194966     -1.930293
  H       2.773746      0.265525     -3.655167
  H       3.312841      1.491401     -2.470068
21
Coordinates from ORCA-job Sing_Q_negative_2 E -3015.186559860883
  Fe      0.535073      0.428464     -0.055758
  S       1.936666     -1.364387      0.185420
  S       0.848933      0.783319      2.165336
  S      -1.542743      1.156240     -0.052304
  S       0.926379      0.948171     -2.173348
  C      -2.206094      1.646371     -1.702182
  H      -2.414644      0.766050     -2.333552
  H      -3.143905      2.216845     -1.568469
  H      -1.475505      2.271305     -2.240713
  C       1.438942     -2.512295     -1.158579
  H       2.013071     -3.456194     -1.078621
  H       0.363602     -2.745999     -1.090358
  H       1.616170     -2.068282     -2.152026
  C       0.237266      2.468836      2.575030
  H      -0.785609      2.602998      2.190617
  H       0.242314      2.613063      3.672483
  H       0.871852      3.248663      2.117960
  C       2.687193      0.585952     -2.603262
  H       3.071548     -0.196054     -1.929192
  H       2.769543      0.257134     -3.655669
  H       3.312313      1.487414     -2.476964
21
Coordinates from ORCA-job Sing_Q_negative_2 E -3015.186658412112
  Fe      0.535454      0.429662     -0.055656
  S       1.936520     -1.363499      0.185713
  S       0.848959      0.783730      2.165246
  S      -1.542073      1.159752     -0.052437
  S       0.925690      0.948250     -2.174282
  C      -2.205300      1.647568     -1.703077
  H      -2.409376      0.766425     -2.334692
  H      -3.145500      2.214136     -1.569862
  H      -1.476783      2.275495     -2.240925
  C       1.439896     -2.511850     -1.158404
  H       2.014981     -3.455122     -1.078114
  H       0.364794     -2.746626     -1.090321
  H       1.616935     -2.067607     -2.151751
  C       0.236605      2.468461      2.577290
  H      -0.785864      2.603128      2.191966
  H       0.240410      2.610574      3.675013
  H       0.871471      3.249426      2.122538
  C       2.686034      0.584090     -2.604983
  H       3.070795     -0.195655     -1.928508
  H       2.767074      0.251509     -3.656311
  H       3.311645      1.485769     -2.482594
