21
Coordinates from ORCA-job Rubredoxin_minus2_singlet_quintet
  Fe  0.53545343836702      0.42966185775329     -0.05565604550254
  S   1.93652051820102     -1.36349900171317      0.18571318371403
  S   0.84895877327375      0.78372961672084      2.16524567219709
  S   -1.54207344404365      1.15975186597808     -0.05243687379420
  S   0.92569028026410      0.94825025903004     -2.17428146085360
  C   -2.20530020853426      1.64756776245326     -1.70307748013799
  H   -2.40937629620129      0.76642478627496     -2.33469216230658
  H   -3.14550011025592      2.21413709127852     -1.56986169893728
  H   -1.47678312161474      2.27549438411868     -2.24092475904461
  C   1.43989590583188     -2.51184968408754     -1.15840406953477
  H   2.01498065420046     -3.45512175012093     -1.07811372722410
  H   0.36479422750305     -2.74662572367971     -1.09032040990308
  H   1.61693502464362     -2.06760743417255     -2.15175096814537
  C   0.23660502352513      2.46846040617143      2.57729004567815
  H   -0.78586442967152      2.60312778365187      2.19196594640183
  H   0.24040957731324      2.61057367985805      3.67501283373454
  H   0.87147140975179      3.24942619364735      2.12253823142653
  C   2.68603355882417      0.58409015399228     -2.60498299317134
  H   3.07079525776357     -0.19565503647195     -1.92850809850875
  H   2.76707357207432      0.25150930754486     -3.65631064493131
  H   3.31164542878525      1.48576872177031     -2.48259443115563
