21
Coordinates from ORCA-job Rubredoxin_minus1_doublet_sextet
  Fe  0.49754914687186      0.07988633439285     -0.05019817322805
  S   1.34894709574642     -1.94166564283892      0.29374383302378
  S   1.51160398062281      1.04975497362657      1.67652401522187
  S   -1.70895770550462      0.16835673991578     -0.26866391731323
  S   1.06903976239715      1.05554563498156     -1.95785867180555
  C   -2.24400743941708      1.37691152280983     -1.53447082746070
  H   -1.76164732834233      1.16386955246621     -2.49873083978209
  H   -3.33594293379491      1.30684205163170     -1.65357099870780
  H   -1.97719873725589      2.39957463822330     -1.23401440697670
  C   0.87833542728579     -2.82284759608648     -1.24331117207519
  H   1.30606237738004     -3.83736950004559     -1.21764125021006
  H   -0.21511974055820     -2.89258031255718     -1.32354095659550
  H   1.25884471801021     -2.28871414877134     -2.12468194878246
  C   0.62810802398192      2.65156054003035      1.77367366999720
  H   -0.45105964900198      2.48780115681236      1.89885098808525
  H   1.01355612800622      3.21868136868806      2.63564445575243
  H   0.79156606436528      3.23577480356577      0.85700519253506
  C   2.89481996048109      1.16470531980832     -1.86149161283107
  H   3.33936596176295      0.16004479534632     -1.85103120598701
  H   3.26581997770790      1.71667633015765     -2.73916897109913
  H   3.19267994925533      1.68480667783986     -0.94121711176004
