21
Coordinates from ORCA-job D_S_negative_1 E -3015.272381782786
  Fe      0.542819      0.097804     -0.096380
  S       1.317979     -1.920170      0.297108
  S       1.486729      1.107322      1.598582
  S      -1.650736      0.219056     -0.292227
  S       1.116070      0.910774     -2.041893
  C      -2.157829      1.395108     -1.518729
  H      -1.630032      1.189498     -2.368284
  H      -3.205746      1.361398     -1.710246
  H      -1.962381      2.353875     -1.227678
  C       0.833478     -2.854076     -1.195864
  H       1.205009     -3.886891     -1.108400
  H      -0.255471     -2.869933     -1.295672
  H       1.257769     -2.384864     -2.090013
  C       0.576080      2.619962      1.827614
  H      -0.463860      2.411611      1.892457
  H       0.903865      3.108151      2.755728
  H       0.738128      3.270193      0.989894
  C       2.891787      1.206454     -1.955866
  H       3.414729      0.270395     -1.852568
  H       3.224457      1.716542     -2.873007
  H       3.119522      1.815406     -1.098704
21
Coordinates from ORCA-job D_S_negative_1 E -3015.286270350774
  Fe      0.540692      0.091209     -0.088825
  S       1.329882     -1.925672      0.301250
  S       1.492711      1.099857      1.607649
  S      -1.656981      0.203094     -0.276720
  S       1.109017      0.916012     -2.035106
  C      -2.189061      1.411612     -1.505534
  H      -1.650400      1.220963     -2.428990
  H      -3.270322      1.350241     -1.683608
  H      -1.982360      2.428632     -1.179841
  C       0.862465     -2.851999     -1.205925
  H       1.241835     -3.882574     -1.123972
  H      -0.230045     -2.876310     -1.314064
  H       1.290122     -2.372582     -2.096871
  C       0.563422      2.633810      1.829262
  H      -0.507985      2.422632      1.901953
  H       0.894651      3.130236      2.754898
  H       0.726656      3.303981      0.977178
  C       2.907519      1.169836     -1.960418
  H       3.422997      0.206097     -1.875231
  H       3.242173      1.682346     -2.876113
  H       3.165376      1.776195     -1.085121
21
Coordinates from ORCA-job D_S_negative_1 E -3015.286705132284
  Fe      0.507779      0.105985     -0.055708
  S       1.337505     -1.901950      0.309324
  S       1.430490      1.093333      1.673598
  S      -1.690946      0.180761     -0.268439
  S       1.083506      0.987526     -1.977802
  C      -2.244325      1.427228     -1.473820
  H      -1.701228      1.289753     -2.418465
  H      -3.327434      1.330831     -1.656553
  H      -2.057158      2.447818     -1.108282
  C       0.954475     -2.788925     -1.246841
  H       1.362227     -3.809969     -1.184146
  H      -0.132686     -2.842034     -1.397614
  H       1.399901     -2.267814     -2.105547
  C       0.541958      2.676971      1.821728
  H      -0.544463      2.508056      1.856317
  H       0.857096      3.182112      2.748382
  H       0.764599      3.329604      0.964113
  C       2.909183      1.039139     -1.962641
  H       3.322430      0.020160     -1.952498
  H       3.263678      1.564206     -2.863370
  H       3.265778      1.564823     -1.065884
21
Coordinates from ORCA-job D_S_negative_1 E -3015.286854288137
  Fe      0.537654      0.075291     -0.076349
  S       1.354128     -1.942694      0.286609
  S       1.513542      1.043760      1.640400
  S      -1.664506      0.186847     -0.258304
  S       1.098146      0.959107     -2.006601
  C      -2.222032      1.385171     -1.533017
  H      -1.710149      1.196602     -2.497719
  H      -3.312607      1.280689     -1.680464
  H      -2.001583      2.427488     -1.223635
  C       0.838427     -2.855663     -1.217970
  H       1.237140     -3.880790     -1.164379
  H      -0.258107     -2.896668     -1.282609
  H       1.221072     -2.360533     -2.121264
  C       0.613177      2.636239      1.798870
  H      -0.473472      2.462466      1.882505
  H       0.967110      3.156444      2.702943
  H       0.797276      3.282896      0.924617
  C       2.912966      1.206686     -1.899451
  H       3.434053      0.238472     -1.831463
  H       3.255539      1.737230     -2.801281
  H       3.164590      1.798576     -1.005588
21
Coordinates from ORCA-job D_S_negative_1 E -3015.287014561396
  Fe      0.520726      0.101382     -0.059179
  S       1.344978     -1.914251      0.304702
  S       1.493609      1.069165      1.661332
  S      -1.681505      0.207672     -0.247147
  S       1.081588      0.992594     -1.987215
  C      -2.237996      1.402132     -1.521765
  H      -1.728873      1.210924     -2.481535
  H      -3.325947      1.298447     -1.666211
  H      -2.015722      2.438998     -1.215335
  C       0.899812     -2.805834     -1.234168
  H       1.309019     -3.826974     -1.183018
  H      -0.192378     -2.858297     -1.342091
  H       1.311320     -2.289816     -2.112496
  C       0.579553      2.650647      1.822453
  H      -0.501044      2.464449      1.915380
  H       0.936425      3.176888      2.721821
  H       0.749589      3.292518      0.944835
  C       2.909756      1.112745     -1.928447
  H       3.362097      0.111128     -1.891236
  H       3.262643      1.635213     -2.831194
  H       3.224714      1.667885     -1.033636
21
Coordinates from ORCA-job D_S_negative_1 E -3015.287173112246
  Fe      0.506322      0.081518     -0.064153
  S       1.359098     -1.925333      0.297649
  S       1.451548      1.045368      1.678318
  S      -1.695307      0.162486     -0.283201
  S       1.079331      1.004064     -1.977302
  C      -2.252182      1.424439     -1.487447
  H      -1.731703      1.299279     -2.446503
  H      -3.334408      1.312972     -1.648254
  H      -2.046254      2.437088     -1.115216
  C       0.919993     -2.819440     -1.241137
  H       1.343991     -3.834818     -1.194601
  H      -0.171597     -2.886943     -1.343959
  H       1.320202     -2.295103     -2.119526
  C       0.583481      2.656452      1.766796
  H      -0.501468      2.503356      1.832299
  H       0.931761      3.197504      2.660767
  H       0.799374      3.262161      0.876104
  C       2.906270      1.111141     -1.898888
  H       3.349376      0.106810     -1.868578
  H       3.270820      1.641909     -2.792239
  H       3.213717      1.652706     -0.995079
21
Coordinates from ORCA-job D_S_negative_1 E -3015.287412465357
  Fe      0.508285      0.100099     -0.058905
  S       1.354293     -1.912501      0.308800
  S       1.488018      1.061355      1.672114
  S      -1.695694      0.202844     -0.262475
  S       1.071878      1.020080     -1.981011
  C      -2.246177      1.424319     -1.511439
  H      -1.745275      1.250343     -2.471474
  H      -3.331852      1.322379     -1.647810
  H      -2.013322      2.444127     -1.183505
  C       0.925752     -2.799469     -1.237328
  H       1.351132     -3.814416     -1.193882
  H      -0.165055     -2.868026     -1.346892
  H       1.330502     -2.269790     -2.110401
  C       0.574044      2.645496      1.797216
  H      -0.500451      2.456578      1.911577
  H       0.946152      3.199283      2.673587
  H       0.731867      3.252291      0.895806
  C       2.901334      1.093853     -1.913086
  H       3.324717      0.081498     -1.881633
  H       3.269600      1.614836     -2.810693
  H       3.222617      1.632437     -1.012718
21
Coordinates from ORCA-job D_S_negative_1 E -3015.287723661980
  Fe      0.502582      0.092364     -0.058097
  S       1.346280     -1.924372      0.309482
  S       1.497215      1.050726      1.671246
  S      -1.702674      0.205522     -0.258739
  S       1.066029      1.017886     -1.981749
  C      -2.246510      1.419122     -1.518494
  H      -1.751015      1.229425     -2.479321
  H      -3.334492      1.324923     -1.647959
  H      -2.001986      2.440498     -1.201110
  C       0.917493     -2.808884     -1.238323
  H       1.344160     -3.823394     -1.198076
  H      -0.173392     -2.878727     -1.347137
  H       1.320862     -2.276647     -2.110567
  C       0.592316      2.641518      1.787356
  H      -0.483079      2.458743      1.910525
  H       0.972973      3.202165      2.655606
  H       0.748342      3.237590      0.877825
  C       2.893986      1.116864     -1.895702
  H       3.330168      0.109825     -1.854127
  H       3.264647      1.637742     -2.792326
  H       3.198459      1.664725     -0.994463
21
Coordinates from ORCA-job D_S_negative_1 E -3015.288367768492
  Fe      0.523421      0.093876     -0.075699
  S       1.389863     -1.920141      0.287276
  S       1.523108      1.058464      1.657710
  S      -1.685100      0.193640     -0.280283
  S       1.082582      1.044621     -1.996707
  C      -2.228422      1.418674     -1.528127
  H      -1.735377      1.231243     -2.492500
  H      -3.318807      1.330629     -1.653474
  H      -1.978775      2.438385     -1.202718
  C       0.881288     -2.835761     -1.218096
  H       1.316335     -3.846915     -1.185046
  H      -0.213599     -2.914494     -1.264626
  H       1.231658     -2.316677     -2.120691
  C       0.581762      2.626919      1.791120
  H      -0.487853      2.417286      1.932929
  H       0.962283      3.198334      2.652294
  H       0.708337      3.224513      0.876910
  C       2.909648      1.156770     -1.899842
  H       3.352444      0.151637     -1.861770
  H       3.282821      1.685744     -2.790569
  H       3.204750      1.700868     -0.992241
21
Coordinates from ORCA-job D_S_negative_1 E -3015.288534802255
  Fe      0.496137      0.080347     -0.058995
  S       1.351214     -1.939997      0.300584
  S       1.501827      1.040287      1.675499
  S      -1.712122      0.192281     -0.265179
  S       1.062821      1.032598     -1.978616
  C      -2.244301      1.409688     -1.523980
  H      -1.752382      1.206691     -2.485839
  H      -3.335507      1.333669     -1.649662
  H      -1.985773      2.430877     -1.209582
  C       0.901404     -2.830273     -1.238086
  H       1.336324     -3.841509     -1.205890
  H      -0.190764     -2.909163     -1.327611
  H       1.285214     -2.295667     -2.117747
  C       0.613686      2.641191      1.772140
  H      -0.464840      2.471276      1.897721
  H       0.998068      3.211436      2.632388
  H       0.776213      3.221682      0.852743
  C       2.888438      1.152431     -1.873590
  H       3.335350      0.149259     -1.834937
  H       3.263974      1.684310     -2.761600
  H       3.177386      1.696204     -0.963910
21
Coordinates from ORCA-job D_S_negative_1 E -3015.288506326781
  Fe      0.497597      0.084091     -0.057461
  S       1.353908     -1.935136      0.299875
  S       1.498278      1.045848      1.677736
  S      -1.710328      0.191012     -0.264914
  S       1.064744      1.037037     -1.975653
  C      -2.244418      1.408018     -1.523364
  H      -1.751509      1.207012     -2.484842
  H      -3.334969      1.331064     -1.651209
  H      -1.988800      2.429781     -1.209376
  C       0.903757     -2.825034     -1.238600
  H       1.338851     -3.836197     -1.206196
  H      -0.188378     -2.904046     -1.327977
  H       1.287394     -2.290528     -2.118383
  C       0.607677      2.644663      1.779115
  H      -0.470779      2.473663      1.900704
  H       0.988525      3.211193      2.643429
  H       0.771506      3.230854      0.863862
  C       2.891554      1.142500     -1.881065
  H       3.331672      0.136269     -1.851251
  H       3.265582      1.676937     -2.768211
  H       3.190503      1.678613     -0.970367
21
Coordinates from ORCA-job D_S_negative_1 E -3015.288603714126
  Fe      0.498152      0.084894     -0.056495
  S       1.356326     -1.934115      0.298145
  S       1.497905      1.049320      1.678778
  S      -1.709870      0.187664     -0.265710
  S       1.066308      1.042067     -1.973088
  C      -2.243795      1.404621     -1.524219
  H      -1.751470      1.203117     -2.485812
  H      -3.334278      1.329663     -1.652838
  H      -1.987735      2.426670     -1.211788
  C       0.901896     -2.824210     -1.238650
  H       1.338220     -3.834886     -1.207426
  H      -0.190416     -2.904441     -1.324603
  H       1.282224     -2.289534     -2.119770
  C       0.606474      2.647079      1.782246
  H      -0.472107      2.476397      1.902030
  H       0.985591      3.211851      2.648516
  H       0.770839      3.236314      0.869146
  C       2.893440      1.141071     -1.883174
  H       3.331008      0.133617     -1.861230
  H       3.266512      1.680047     -2.767998
  H       3.197142      1.670409     -0.970208
21
Coordinates from ORCA-job D_S_negative_1 E -3015.288681767376
  Fe      0.497642      0.083809     -0.055784
  S       1.355383     -1.935564      0.297807
  S       1.499038      1.050558      1.678154
  S      -1.710346      0.184942     -0.266084
  S       1.066917      1.043114     -1.971660
  C      -2.243628      1.401855     -1.524907
  H      -1.752544      1.199435     -2.486905
  H      -3.334242      1.328728     -1.653292
  H      -1.985959      2.423869     -1.213957
  C       0.899659     -2.824690     -1.238986
  H       1.336342     -3.835246     -1.208556
  H      -0.192696     -2.905190     -1.324108
  H       1.279138     -2.289583     -2.120214
  C       0.608187      2.648299      1.781951
  H      -0.470573      2.478689      1.901433
  H       0.987258      3.212307      2.648773
  H       0.772773      3.238687      0.869633
  C       2.893808      1.142953     -1.881774
  H       3.332506      0.135935     -1.863361
  H       3.266099      1.685107     -2.765004
  H       3.197603      1.669601     -0.967310
21
Coordinates from ORCA-job D_S_negative_1 E -3015.288715840143
  Fe      0.497547      0.082660     -0.053985
  S       1.355202     -1.937138      0.295735
  S       1.501552      1.050589      1.678807
  S      -1.710245      0.180400     -0.266041
  S       1.067779      1.047853     -1.967310
  C      -2.243436      1.393588     -1.528509
  H      -1.754456      1.187639     -2.490822
  H      -3.334301      1.321491     -1.655504
  H      -1.983527      2.416285     -1.222065
  C       0.892647     -2.824528     -1.239894
  H       1.329243     -3.835214     -1.212013
  H      -0.200071     -2.904625     -1.320640
  H       1.268681     -2.288911     -2.122285
  C       0.614132      2.649984      1.781050
  H      -0.465253      2.483518      1.899555
  H       0.993731      3.212897      2.648393
  H       0.780808      3.240742      0.869287
  C       2.894334      1.149275     -1.876832
  H       3.334793      0.142911     -1.863947
  H       3.265500      1.696572     -2.757384
  H       3.197703      1.671627     -0.959748
21
Coordinates from ORCA-job D_S_negative_1 E -3015.288756734737
  Fe      0.496994      0.081057     -0.054367
  S       1.352385     -1.938988      0.297335
  S       1.504102      1.051895      1.675372
  S      -1.710491      0.178184     -0.267688
  S       1.068319      1.045280     -1.968057
  C      -2.243533      1.394595     -1.527015
  H      -1.756097      1.190405     -2.490470
  H      -3.334626      1.323436     -1.652704
  H      -1.981755      2.416121     -1.218563
  C       0.892716     -2.825062     -1.239959
  H       1.327874     -3.836351     -1.211366
  H      -0.199901     -2.903520     -1.323653
  H       1.271864     -2.289565     -2.121092
  C       0.614109      2.649691      1.778237
  H      -0.464696      2.481485      1.899798
  H       0.995168      3.213906      2.644099
  H       0.777376      3.239959      0.865497
  C       2.894493      1.149935     -1.875080
  H       3.336831      0.144378     -1.861491
  H       3.265618      1.697732     -2.755339
  H       3.195616      1.673041     -0.957646
21
Coordinates from ORCA-job D_S_negative_1 E -3015.288738571704
  Fe      0.496521      0.078600     -0.052829
  S       1.348338     -1.942148      0.297059
  S       1.509515      1.051628      1.672757
  S      -1.710167      0.171714     -0.269344
  S       1.069142      1.047274     -1.963986
  C      -2.243845      1.386962     -1.529280
  H      -1.759339      1.180809     -2.493888
  H      -3.335409      1.316277     -1.651615
  H      -1.978920      2.408147     -1.222509
  C       0.885564     -2.824815     -1.241437
  H       1.316835     -3.837808     -1.214070
  H      -0.207356     -2.898684     -1.325324
  H       1.266946     -2.289632     -2.121792
  C       0.621329      2.650382      1.773162
  H      -0.457401      2.483532      1.898057
  H       1.005412      3.216349      2.636537
  H       0.782971      3.237895      0.858247
  C       2.894640      1.158029     -1.866761
  H       3.340531      0.153955     -1.854825
  H       3.265330      1.709234     -2.745073
  H       3.191730      1.679914     -0.947234
21
Coordinates from ORCA-job D_S_negative_1 E -3015.288589775223
  Fe      0.496956      0.079344     -0.052064
  S       1.348530     -1.941482      0.296190
  S       1.509840      1.050724      1.674120
  S      -1.709559      0.171056     -0.269165
  S       1.068936      1.049917     -1.962043
  C      -2.244023      1.384280     -1.530742
  H      -1.758982      1.176855     -2.494859
  H      -3.335538      1.312592     -1.652850
  H      -1.980003      2.406081     -1.224952
  C       0.883777     -2.823895     -1.241958
  H       1.313650     -3.837480     -1.214883
  H      -0.209302     -2.896181     -1.325082
  H       1.265342     -2.289170     -2.122507
  C       0.623169      2.650585      1.773389
  H      -0.455652      2.484532      1.898541
  H       1.007754      3.217216      2.636082
  H       0.785343      3.236571      0.857612
  C       2.894659      1.159538     -1.865507
  H       3.339579      0.155041     -1.853762
  H       3.265623      1.710534     -2.743820
  H       3.192268      1.680955     -0.945891
