9
Coordinates from ORCA-job Nickel_acetate_plus1_doublet_quartet_doublet_min E -1737.034450038769
  C      -0.697663      1.663185      0.054196
  H      -0.270360      1.918979      1.019636
  H      -0.148143      2.040393     -0.809431
  H      -1.769212      1.797518     -0.016118
  O      -1.838092     -0.813051      0.243233
  H      -2.602405     -0.358895      0.625820
  C       1.653517     -0.150103      0.018319
  O       2.755363     -0.114526      0.181518
  Ni     -0.295827     -0.251996     -0.166179
9
Coordinates from ORCA-job Nickel_acetate_plus1_doublet_quartet_doublet_min E -1737.034455366978
  C      -0.696851      1.661964      0.054167
  H      -0.264952      1.917014      1.017835
  H      -0.150655      2.038740     -0.811842
  H      -1.768777      1.796144     -0.011416
  O      -1.838871     -0.812488      0.241946
  H      -2.602191     -0.356806      0.624851
  C       1.652141     -0.148713      0.019280
  O       2.753715     -0.111500      0.184311
  Ni     -0.296380     -0.252852     -0.168137
9
Coordinates from ORCA-job Nickel_acetate_plus1_doublet_quartet_doublet_min E -1737.034463329035
  C      -0.694023      1.658336      0.053996
  H      -0.249742      1.911083      1.012594
  H      -0.156615      2.033728     -0.818180
  H      -1.766404      1.793512      0.001132
  O      -1.841556     -0.811551      0.237513
  H      -2.600875     -0.351882      0.623632
  C       1.647135     -0.144592      0.021839
  O       2.747737     -0.101670      0.192387
  Ni     -0.298479     -0.255460     -0.173917
9
Coordinates from ORCA-job Nickel_acetate_plus1_doublet_quartet_doublet_min E -1737.034464405701
  C      -0.693055      1.657563      0.053903
  H      -0.247177      1.909970      1.011829
  H      -0.156570      2.032658     -0.818980
  H      -1.765340      1.794080      0.002596
  O      -1.842376     -0.812013      0.236139
  H      -2.600212     -0.351854      0.624610
  C       1.645406     -0.143862      0.022095
  O       2.745738     -0.098961      0.193844
  Ni     -0.299237     -0.256077     -0.175042
9
Coordinates from ORCA-job Nickel_acetate_plus1_doublet_quartet_doublet_min E -1737.034464988660
  C      -0.690912      1.656436      0.053729
  H      -0.244001      1.908966      1.011134
  H      -0.154722      2.031096     -0.819569
  H      -1.762840      1.796591      0.003312
  O      -1.844027     -0.813859      0.233270
  H      -2.598706     -0.353575      0.627785
  C       1.641706     -0.143219      0.022063
  O       2.741531     -0.093877      0.195749
  Ni     -0.300850     -0.257055     -0.176479
9
Coordinates from ORCA-job Nickel_acetate_plus1_doublet_quartet_doublet_min E -1737.034464807409
  C      -0.690505      1.656476      0.053773
  H      -0.244005      1.909650      1.011216
  H      -0.154211      2.031163     -0.819474
  H      -1.762386      1.797155      0.003025
  O      -1.844219     -0.814452      0.232855
  H      -2.598602     -0.354437      0.628275
  C       1.641187     -0.143637      0.021893
  O       2.740949     -0.093376      0.195723
  Ni     -0.301029     -0.257039     -0.176292
