9
Coordinates from ORCA-job Nickel_acetate_plus1_doublet_quartet_quartet_min E -1736.969523517053
  C      -0.697663      1.663185      0.054196
  H      -0.270360      1.918979      1.019636
  H      -0.148143      2.040393     -0.809431
  H      -1.769212      1.797518     -0.016118
  O      -1.838092     -0.813051      0.243233
  H      -2.602405     -0.358895      0.625820
  C       1.653517     -0.150103      0.018319
  O       2.755363     -0.114526      0.181518
  Ni     -0.295827     -0.251996     -0.166179
9
Coordinates from ORCA-job Nickel_acetate_plus1_doublet_quartet_quartet_min E -1736.976866745343
  C      -0.710630      1.720936      0.050730
  H      -0.303645      1.993589      1.024516
  H      -0.133796      2.077938     -0.808747
  H      -1.777088      1.873767     -0.049661
  O      -1.834986     -0.855391      0.218723
  H      -2.614004     -0.479504      0.654848
  C       1.674762     -0.197404      0.019734
  O       2.780746     -0.179543      0.157739
  Ni     -0.294181     -0.222885     -0.116888
9
Coordinates from ORCA-job Nickel_acetate_plus1_doublet_quartet_quartet_min E -1736.986417784811
  C      -0.733890      1.819007      0.037630
  H      -0.334981      2.087963      1.020583
  H      -0.135239      2.146231     -0.818678
  H      -1.795329      1.995663     -0.082171
  O      -1.818082     -0.916927      0.194788
  H      -2.612816     -0.665608      0.687364
  C       1.700727     -0.277643      0.029006
  O       2.809774     -0.284367      0.140309
  Ni     -0.292986     -0.172816     -0.057837
9
Coordinates from ORCA-job Nickel_acetate_plus1_doublet_quartet_quartet_min E -1736.992633938989
  C      -0.766793      1.941638      0.018737
  H      -0.369678      2.177505      1.010775
  H      -0.149575      2.235247     -0.833546
  H      -1.824381      2.136284     -0.111545
  O      -1.775573     -0.988686      0.192304
  H      -2.586014     -0.867347      0.707234
  C       1.719704     -0.377731      0.042959
  O       2.829756     -0.417192      0.131071
  Ni     -0.290269     -0.108214     -0.006996
9
Coordinates from ORCA-job Nickel_acetate_plus1_doublet_quartet_quartet_min E -1736.994736076238
  C      -0.791092      2.036624      0.004511
  H      -0.406692      2.244932      1.006384
  H      -0.148714      2.298583     -0.840353
  H      -1.844391      2.235752     -0.143535
  O      -1.740225     -1.026075      0.181417
  H      -2.537558     -1.030643      0.730164
  C       1.718287     -0.449556      0.055309
  O       2.828231     -0.524921      0.118526
  Ni     -0.290668     -0.053192      0.038570
9
Coordinates from ORCA-job Nickel_acetate_plus1_doublet_quartet_quartet_min E -1736.995748817626
  C      -0.798919      2.086916     -0.002650
  H      -0.437062      2.286764      1.008480
  H      -0.129850      2.325510     -0.834137
  H      -1.848320      2.281274     -0.176860
  O      -1.732668     -1.022968      0.162752
  H      -2.487226     -1.142304      0.756851
  C       1.704625     -0.478770      0.061394
  O       2.813261     -0.584436      0.103826
  Ni     -0.296662     -0.020482      0.071339
9
Coordinates from ORCA-job Nickel_acetate_plus1_doublet_quartet_quartet_min E -1736.996796403544
  C      -0.801171      2.125270     -0.007494
  H      -0.456781      2.324086      1.008786
  H      -0.113768      2.339849     -0.828128
  H      -1.849498      2.305051     -0.202048
  O      -1.732154     -1.003018      0.147185
  H      -2.429725     -1.240171      0.773804
  C       1.684982     -0.492669      0.067629
  O       2.790038     -0.634940      0.092943
  Ni     -0.304744      0.008046      0.098317
9
Coordinates from ORCA-job Nickel_acetate_plus1_doublet_quartet_quartet_min E -1736.997924048862
  C      -0.801243      2.157823     -0.010804
  H      -0.469758      2.359045      1.008041
  H      -0.103376      2.350744     -0.823874
  H      -1.851728      2.308867     -0.219501
  O      -1.730167     -0.972362      0.138756
  H      -2.362359     -1.324213      0.779758
  C       1.660425     -0.496551      0.074044
  O       2.757988     -0.688613      0.087802
  Ni     -0.312605      0.036765      0.116772
9
Coordinates from ORCA-job Nickel_acetate_plus1_doublet_quartet_quartet_min E -1736.998951753317
  C      -0.803284      2.194017     -0.014167
  H      -0.481186      2.397595      1.006419
  H      -0.100513      2.373168     -0.823456
  H      -1.857425      2.303721     -0.231524
  O      -1.718072     -0.941459      0.139387
  H      -2.276877     -1.405229      0.777103
  C       1.630064     -0.500580      0.081613
  O       2.713519     -0.760409      0.090683
  Ni     -0.319047      0.070680      0.124936
9
Coordinates from ORCA-job Nickel_acetate_plus1_doublet_quartet_quartet_min E -1736.999773005468
  C      -0.809091      2.237596     -0.019154
  H      -0.495352      2.444109      1.003167
  H      -0.102631      2.412358     -0.826286
  H      -1.865112      2.308226     -0.243579
  O      -1.696301     -0.921641      0.152288
  H      -2.175939     -1.494528      0.765579
  C       1.596222     -0.515143      0.090563
  O       2.659508     -0.848069      0.097181
  Ni     -0.324127      0.108596      0.131234
9
Coordinates from ORCA-job Nickel_acetate_plus1_doublet_quartet_quartet_min E -1737.000561063060
  C      -0.818515      2.287597     -0.025783
  H      -0.508534      2.499257      0.996561
  H      -0.114422      2.469141     -0.833950
  H      -1.876294      2.322226     -0.251748
  O      -1.661918     -0.914980      0.174566
  H      -2.058228     -1.588116      0.744376
  C       1.558205     -0.540995      0.102268
  O       2.593584     -0.952571      0.109976
  Ni     -0.326700      0.149945      0.134728
9
Coordinates from ORCA-job Nickel_acetate_plus1_doublet_quartet_quartet_min E -1737.001339642742
  C      -0.829465      2.337287     -0.033318
  H      -0.519856      2.560333      0.986831
  H      -0.134495      2.540728     -0.845646
  H      -1.888956      2.344101     -0.255926
  O      -1.618529     -0.920643      0.204339
  H      -1.931242     -1.680086      0.715218
  C       1.517394     -0.575634      0.116001
  O       2.518831     -1.064765      0.127979
  Ni     -0.326504      0.190184      0.135516
9
Coordinates from ORCA-job Nickel_acetate_plus1_doublet_quartet_quartet_min E -1737.002000871362
  C      -0.835095      2.369605     -0.039479
  H      -0.527051      2.613000      0.976472
  H      -0.148241      2.590857     -0.855613
  H      -1.895280      2.361184     -0.259691
  O      -1.591115     -0.923517      0.242728
  H      -1.833370     -1.753984      0.675664
  C       1.485028     -0.600779      0.126686
  O       2.459402     -1.142659      0.137765
  Ni     -0.327102      0.217796      0.146461
9
Coordinates from ORCA-job Nickel_acetate_plus1_doublet_quartet_quartet_min E -1737.002585132161
  C      -0.834382      2.381885     -0.043310
  H      -0.526451      2.653682      0.965321
  H      -0.156124      2.612345     -0.864738
  H      -1.895666      2.367935     -0.259536
  O      -1.585131     -0.920030      0.286839
  H      -1.777603     -1.805035      0.626751
  C       1.465866     -0.611507      0.134167
  O       2.425444     -1.179768      0.139706
  Ni     -0.328776      0.231997      0.165794
9
Coordinates from ORCA-job Nickel_acetate_plus1_doublet_quartet_quartet_min E -1737.003078463232
  C      -0.827489      2.374514     -0.044437
  H      -0.518202      2.679824      0.953904
  H      -0.157625      2.603241     -0.872527
  H      -1.890538      2.362232     -0.255269
  O      -1.602154     -0.908712      0.334724
  H      -1.768635     -1.831725      0.571213
  C       1.461639     -0.607253      0.138515
  O       2.421790     -1.174600      0.133867
  Ni     -0.331607      0.233983      0.191002
9
Coordinates from ORCA-job Nickel_acetate_plus1_doublet_quartet_quartet_min E -1737.003344056438
  C      -0.819478      2.360582     -0.043678
  H      -0.498453      2.692870      0.941924
  H      -0.160976      2.568087     -0.884779
  H      -1.886024      2.344512     -0.239204
  O      -1.627148     -0.890889      0.376915
  H      -1.786269     -1.835501      0.510585
  C       1.465831     -0.594310      0.143994
  O       2.434604     -1.146069      0.128584
  Ni     -0.334910      0.232222      0.216654
9
Coordinates from ORCA-job Nickel_acetate_plus1_doublet_quartet_quartet_min E -1737.003453405708
  C      -0.814025      2.349868     -0.041700
  H      -0.475153      2.688769      0.935416
  H      -0.168424      2.541654     -0.895970
  H      -1.884116      2.335130     -0.218251
  O      -1.648502     -0.880562      0.383407
  H      -1.804812     -1.829303      0.488586
  C       1.470883     -0.585457      0.148910
  O       2.450988     -1.116561      0.133667
  Ni     -0.339661      0.227965      0.216930
9
Coordinates from ORCA-job Nickel_acetate_plus1_doublet_quartet_quartet_min E -1737.003586588420
  C      -0.808283      2.341838     -0.038665
  H      -0.429804      2.679874      0.923688
  H      -0.192562      2.510585     -0.919123
  H      -1.884567      2.323780     -0.173198
  O      -1.672700     -0.867927      0.377785
  H      -1.815273     -1.820951      0.464567
  C       1.472470     -0.578433      0.160112
  O       2.466213     -1.083452      0.155339
  Ni     -0.348315      0.226191      0.200489
9
Coordinates from ORCA-job Nickel_acetate_plus1_doublet_quartet_quartet_min E -1737.003686171824
  C      -0.805813      2.342199     -0.036410
  H      -0.385143      2.675969      0.909487
  H      -0.226750      2.502755     -0.943376
  H      -1.886814      2.319654     -0.124941
  O      -1.682210     -0.863907      0.361891
  H      -1.802892     -1.819941      0.451909
  C       1.466188     -0.581012      0.173030
  O       2.466238     -1.073394      0.186361
  Ni     -0.355625      0.229182      0.173044
9
Coordinates from ORCA-job Nickel_acetate_plus1_doublet_quartet_quartet_min E -1737.003771402974
  C      -0.806265      2.348328     -0.035527
  H      -0.347257      2.681514      0.892447
  H      -0.265065      2.510697     -0.965871
  H      -1.889844      2.318825     -0.080167
  O      -1.677835     -0.865686      0.346654
  H      -1.774352     -1.824423      0.439613
  C       1.454448     -0.589816      0.186705
  O       2.453201     -1.084256      0.217800
  Ni     -0.359852      0.236321      0.149340
9
Coordinates from ORCA-job Nickel_acetate_plus1_doublet_quartet_quartet_min E -1737.003818493828
  C      -0.807218      2.351809     -0.035502
  H      -0.327357      2.689136      0.880411
  H      -0.289128      2.519758     -0.978265
  H      -1.891537      2.320261     -0.055058
  O      -1.671760     -0.868649      0.336484
  H      -1.754259     -1.828531      0.432061
  C       1.446755     -0.596602      0.195365
  O       2.442631     -1.096344      0.234922
  Ni     -0.360948      0.240666      0.140576
9
Coordinates from ORCA-job Nickel_acetate_plus1_doublet_quartet_quartet_min E -1737.003851652251
  C      -0.808138      2.353426     -0.035863
  H      -0.312776      2.697662      0.869324
  H      -0.308124      2.524320     -0.987819
  H      -1.892709      2.321823     -0.035905
  O      -1.666942     -0.870439      0.328856
  H      -1.739888     -1.831337      0.422354
  C       1.441778     -0.601557      0.202870
  O       2.435063     -1.106176      0.245516
  Ni     -0.361087      0.243782      0.141661
9
Coordinates from ORCA-job Nickel_acetate_plus1_doublet_quartet_quartet_min E -1737.003871041950
  C      -0.808446      2.352596     -0.036219
  H      -0.302011      2.704111      0.860213
  H      -0.321437      2.523060     -0.994812
  H      -1.893095      2.323623     -0.022009
  O      -1.666073     -0.870694      0.322290
  H      -1.733196     -1.832304      0.412811
  C       1.439996     -0.604141      0.208843
  O       2.432707     -1.109906      0.250563
  Ni     -0.361268      0.245158      0.149313
9
Coordinates from ORCA-job Nickel_acetate_plus1_doublet_quartet_quartet_min E -1737.003877721202
  C      -0.808412      2.351503     -0.036584
  H      -0.297411      2.707080      0.855783
  H      -0.326485      2.518471     -0.998109
  H      -1.893109      2.324777     -0.016434
  O      -1.667376     -0.869992      0.319533
  H      -1.732179     -1.832128      0.405902
  C       1.440241     -0.604663      0.211901
  O       2.433538     -1.109461      0.250338
  Ni     -0.361628      0.245917      0.158663
9
Coordinates from ORCA-job Nickel_acetate_plus1_doublet_quartet_quartet_min E -1737.003879613152
  C      -0.808205      2.351034     -0.036801
  H      -0.297628      2.706957      0.855716
  H      -0.325709      2.515991     -0.998268
  H      -1.892981      2.325514     -0.017237
  O      -1.668776     -0.869849      0.318552
  H      -1.732750     -1.832016      0.404968
  C       1.440700     -0.604438      0.212234
  O       2.434640     -1.108121      0.248252
  Ni     -0.362113      0.246432      0.163579
9
Coordinates from ORCA-job Nickel_acetate_plus1_doublet_quartet_quartet_min E -1737.003882672835
  C      -0.808026      2.351429     -0.037143
  H      -0.299809      2.706332      0.857143
  H      -0.323022      2.515202     -0.997450
  H      -1.892881      2.325832     -0.020554
  O      -1.669205     -0.870240      0.318601
  H      -1.731538     -1.832427      0.405789
  C       1.440311     -0.604215      0.211755
  O       2.434131     -1.108281      0.245456
  Ni     -0.362783      0.247872      0.167397
9
Coordinates from ORCA-job Nickel_acetate_plus1_doublet_quartet_quartet_min E -1737.003886693118
  C      -0.807661      2.352015     -0.037483
  H      -0.304371      2.704666      0.860480
  H      -0.317702      2.516855     -0.995077
  H      -1.892591      2.325563     -0.026993
  O      -1.669075     -0.871188      0.319323
  H      -1.729011     -1.833210      0.409837
  C       1.439139     -0.603614      0.210037
  O       2.432170     -1.109365      0.241958
  Ni     -0.363720      0.249782      0.168913
9
Coordinates from ORCA-job Nickel_acetate_plus1_doublet_quartet_quartet_min E -1737.003890407568
  C      -0.807280      2.352507     -0.037763
  H      -0.309654      2.702925      0.864236
  H      -0.311696      2.520020     -0.992032
  H      -1.892226      2.324478     -0.034115
  O      -1.668192     -0.872073      0.321118
  H      -1.725512     -1.833974      0.414644
  C       1.437398     -0.602698      0.207822
  O       2.428975     -1.111360      0.238882
  Ni     -0.364635      0.251679      0.168203
9
Coordinates from ORCA-job Nickel_acetate_plus1_doublet_quartet_quartet_min E -1737.003891689646
  C      -0.806995      2.352079     -0.037755
  H      -0.311653      2.701900      0.865748
  H      -0.309036      2.521564     -0.990507
  H      -1.891938      2.323688     -0.036846
  O      -1.668062     -0.872159      0.321926
  H      -1.724068     -1.834002      0.417039
  C       1.436564     -0.601921      0.206747
  O       2.427535     -1.111763      0.238010
  Ni     -0.365169      0.252118      0.166631
9
Coordinates from ORCA-job Nickel_acetate_plus1_doublet_quartet_quartet_min E -1737.003892318734
  C      -0.806904      2.351728     -0.037864
  H      -0.315638      2.700686      0.868244
  H      -0.304362      2.523184     -0.987882
  H      -1.891835      2.323331     -0.041881
  O      -1.667525     -0.872280      0.323985
  H      -1.722644     -1.834097      0.420011
  C       1.435814     -0.601054      0.204983
  O       2.425959     -1.112519      0.235842
  Ni     -0.365687      0.252524      0.165556
9
Coordinates from ORCA-job Nickel_acetate_plus1_doublet_quartet_quartet_min E -1737.003891793326
  C      -0.806897      2.351294     -0.037853
  H      -0.316939      2.699927      0.869108
  H      -0.302540      2.522999     -0.986888
  H      -1.891832      2.323821     -0.043594
  O      -1.667833     -0.872191      0.324647
  H      -1.722860     -1.833986      0.421008
  C       1.435886     -0.600736      0.204345
  O       2.426187     -1.111910      0.234964
  Ni     -0.365994      0.252286      0.165258
