9
Coordinates from ORCA-job Nickel_acetate_plus1_doublet_quartet_doublet_min
  C   -0.69050468251389      1.65647584564982      0.05377312673218
  H   -0.24400505131476      1.90964974118712      1.01121576580969
  H   -0.15421124779291      2.03116311779765     -0.81947421007084
  H   -1.76238632117718      1.79715513337403      0.00302467776767
  O   -1.84421900697772     -0.81445167900519      0.23285520028228
  H   -2.59860214515291     -0.35443671993464      0.62827475100687
  C   1.64118658435064     -0.14363703519137      0.02189341016796
  O   2.74094886179910     -0.09337576460991      0.19572297156836
  Ni  -0.30102899122037     -0.25703863926752     -0.17629169326418
