9
Coordinates from ORCA-job Nickel_acetate_plus1_doublet_quartet_quartet_min
  C   -0.80689673386373      2.35129383002221     -0.03785345660733
  H   -0.31693929627483      2.69992744510603      0.86910816323325
  H   -0.30253962180549      2.52299850025528     -0.98688835553441
  H   -1.89183198328274      2.32382088165594     -0.04359440891578
  O   -1.66783336469907     -0.87219071920129      0.32464729391915
  H   -1.72285955549733     -1.83398556047010      0.42100813177843
  C   1.43588574612447     -0.60073557530321      0.20434482456735
  O   2.42618727905973     -1.11191037662857      0.23496373911917
  Ni  -0.36599446976099      0.25228557456373      0.16525806844017
